 
data_complex1-100K
 
_audit_creation_method            SHELXL-2013
_chemical_name_systematic
;
 ?
;
_chemical_name_common             ?
_chemical_melting_point           ?
_chemical_formula_moiety          ?
_chemical_formula_sum
 'C34 H32 N6 Ni2 O14' 
_chemical_formula_weight          866.07

loop_
 _atom_type_symbol
 _atom_type_description
 _atom_type_scat_dispersion_real
 _atom_type_scat_dispersion_imag
 _atom_type_scat_source
 'C'  'C'   0.0181   0.0091
 'International Tables Vol C Tables 4.2.6.8 and 6.1.1.4'
 'H'  'H'   0.0000   0.0000
 'International Tables Vol C Tables 4.2.6.8 and 6.1.1.4'
 'N'  'N'   0.0311   0.0180
 'International Tables Vol C Tables 4.2.6.8 and 6.1.1.4'
 'O'  'O'   0.0492   0.0322
 'International Tables Vol C Tables 4.2.6.8 and 6.1.1.4'
 'Ni'  'Ni'  -3.0029   0.5091
 'International Tables Vol C Tables 4.2.6.8 and 6.1.1.4'
 
_space_group_crystal_system       monoclinic
_space_group_IT_number            12
_space_group_name_H-M_alt         'C 2/m'
_space_group_name_Hall            '-C 2y'
 
_shelx_space_group_comment
;
The symmetry employed for this shelxl refinement is uniquely defined
by the following loop, which should always be used as a source of
symmetry information in preference to the above space-group names.
They are only intended as comments.
;
 
loop_
 _space_group_symop_operation_xyz
 'x, y, z'
 '-x, y, -z'
 'x+1/2, y+1/2, z'
 '-x+1/2, y+1/2, -z'
 '-x, -y, -z'
 'x, -y, z'
 '-x+1/2, -y+1/2, -z'
 'x+1/2, -y+1/2, z'
 
_cell_length_a                    19.8663(4)
_cell_length_b                    21.8289(3)
_cell_length_c                    11.6384(2)
_cell_angle_alpha                 90
_cell_angle_beta                  116.935(3)
_cell_angle_gamma                 90
_cell_volume                      4499.59(17)
_cell_formula_units_Z             4
_cell_measurement_temperature   100.01(13) 
_cell_measurement_reflns_used   4769
_cell_measurement_theta_min     4.0350
_cell_measurement_theta_max     72.5410
 
_exptl_crystal_description        prism 
_exptl_crystal_colour             green 
_exptl_crystal_density_meas       ? 
_exptl_crystal_density_method     ?              
_exptl_crystal_density_diffrn     1.278          
_exptl_crystal_F_000              1784
_exptl_transmission_factor_min    ?                                             
_exptl_transmission_factor_max    ?                                             
_exptl_crystal_size_max           0.110
_exptl_crystal_size_mid           0.040
_exptl_crystal_size_min           0.030
_exptl_absorpt_coefficient_mu     1.591
_shelx_estimated_absorpt_T_min    0.844
_shelx_estimated_absorpt_T_max    0.954
_exptl_absorpt_correction_T_min                   0.75023
_exptl_absorpt_correction_T_max                   1.00000
_exptl_absorpt_correction_type            'multi-scan'
_exptl_absorpt_process_details
;
CrysAlisPro, Agilent Technologies,
Version 1.171.36.28 (release 01-02-2013 CrysAlis171 .NET)
(compiled Feb  1 2013,16:14:44)
Empirical absorption correction using spherical harmonics,
 implemented in SCALE3 ABSPACK scaling algorithm.
;
 
_exptl_special_details
;
 ?
;
 
_diffrn_ambient_temperature       100.01(13)
_diffrn_radiation_wavelength      1.54184
_diffrn_radiation_type            'Cu K\a'
_diffrn_source                    'SuperNova (Cu) X-ray Source'                       
_diffrn_measurement_device_type   'SuperNova, Dual, Cu at zero, Atlas' 
_diffrn_measurement_method        '\w scans'
_diffrn_detector_area_resol_mean  10.5594 
_diffrn_reflns_number             8465
_diffrn_reflns_av_unetI/netI      0.0250
_diffrn_reflns_av_R_equivalents   0.0196
_diffrn_reflns_limit_h_min        -24
_diffrn_reflns_limit_h_max        24
_diffrn_reflns_limit_k_min        -26
_diffrn_reflns_limit_k_max        25
_diffrn_reflns_limit_l_min        -14
_diffrn_reflns_limit_l_max        9
_diffrn_reflns_theta_min          4.261
_diffrn_reflns_theta_max          73.141
_diffrn_reflns_theta_full         67.684
_diffrn_measured_fraction_theta_max   0.954
_diffrn_measured_fraction_theta_full  0.985
_diffrn_reflns_Laue_measured_fraction_max    0.954
_diffrn_reflns_Laue_measured_fraction_full   0.985
_diffrn_reflns_point_group_measured_fraction_max   0.954
_diffrn_reflns_point_group_measured_fraction_full  0.985
_reflns_number_total              4435
_reflns_number_gt                 4032
_reflns_threshold_expression      'I > 2\s(I)'
_reflns_Friedel_coverage          0.000
_reflns_Friedel_fraction_max      .
_reflns_Friedel_fraction_full     .
 
_reflns_special_details
;
 Reflections were merged by SHELXL according to the crystal
 class for the calculation of statistics and refinement.
 
 _reflns_Friedel_fraction is defined as the number of unique
 Friedel pairs measured divided by the number that would be
 possible theoretically, ignoring centric projections and
 systematic absences.
;
 
_computing_data_collection       
;
CrysAlisPro, Agilent Technologies,
Version 1.171.36.28 (release 01-02-2013 CrysAlis171 .NET)
(compiled Feb  1 2013,16:14:44)
;
_computing_cell_refinement        
;
CrysAlisPro, Agilent Technologies,
Version 1.171.36.28 (release 01-02-2013 CrysAlis171 .NET)
(compiled Feb  1 2013,16:14:44)
;
_computing_data_reduction         
;
CrysAlisPro, Agilent Technologies,
Version 1.171.36.28 (release 01-02-2013 CrysAlis171 .NET)
(compiled Feb  1 2013,16:14:44)
;
_computing_structure_solution     ?
_computing_structure_refinement   'SHELXL-2013 (Sheldrick, 2013)'
_computing_molecular_graphics     ?
_computing_publication_material   ?
 
_refine_special_details
;
 ?
;
_refine_ls_structure_factor_coef  Fsqd
_refine_ls_matrix_type            full
_refine_ls_weighting_scheme       calc
_refine_ls_weighting_details
;
 w=1/[\s^2^(Fo^2^)+(0.1327P)^2^+15.6299P]
 where P=(Fo^2^+2Fc^2^)/3
;
_atom_sites_solution_primary      ?
_atom_sites_solution_secondary    ?
_atom_sites_solution_hydrogens    geom
_refine_ls_hydrogen_treatment     constr
_refine_ls_extinction_method      none
_refine_ls_extinction_coef        .
_refine_ls_number_reflns          4435
_refine_ls_number_parameters      308
_refine_ls_number_restraints      6
_refine_ls_R_factor_all           0.0718
_refine_ls_R_factor_gt            0.0677
_refine_ls_wR_factor_ref          0.2041
_refine_ls_wR_factor_gt           0.1977
_refine_ls_goodness_of_fit_ref    1.060
_refine_ls_restrained_S_all       1.064
_refine_ls_shift/su_max           0.001
_refine_ls_shift/su_mean          0.000
 
loop_
 _atom_site_label
 _atom_site_type_symbol
 _atom_site_fract_x
 _atom_site_fract_y
 _atom_site_fract_z
 _atom_site_U_iso_or_equiv
 _atom_site_adp_type
 _atom_site_occupancy
 _atom_site_site_symmetry_order  
 _atom_site_calc_flag
 _atom_site_refinement_flags_posn
 _atom_site_refinement_flags_adp
 _atom_site_refinement_flags_occupancy
 _atom_site_disorder_assembly
 _atom_site_disorder_group
Ni1 Ni 0.18725(3) 0.12247(2) 0.88179(5) 0.0177(2) Uani 1 1 d . . . . .
O1 O 0.18810(13) 0.12044(11) 0.6981(2) 0.0259(5) Uani 1 1 d . . . . .
O2 O 0.26619(12) 0.17827(10) 0.8582(2) 0.0225(5) Uani 1 1 d . . . . .
O3 O 0.26417(11) 0.05117(10) 0.9341(2) 0.0236(5) Uani 1 1 d . . . . .
O4 O 0.11478(11) 0.05128(10) 0.8592(2) 0.0212(5) Uani 1 1 d . . . . .
O8 O 0.2901(9) 0.0000 0.3941(18) 0.112(5) Uani 0.6 2 d S T P . .
O9 O 0.285(3) 0.0000 0.276(5) 0.110(15) Uani 0.2 2 d S T P . .
O10 O 0.3629(18) 0.0197(12) 0.238(3) 0.164(19) Uani 0.2 1 d . . P . .
O11 O 0.0731(12) 0.0552(8) 0.4900(16) 0.100(7) Uani 0.25 1 d . . P . .
O12 O 0.0000 0.0437(11) 0.5000 0.132(14) Uani 0.3 2 d S T P . .
O13 O 0.1510(6) 0.0000 0.5823(9) 0.100(3) Uani 0.8 2 d S T P . .
O14 O 0.1328(7) 0.0000 0.3221(12) 0.105(3) Uani 0.7 2 d S T P . .
O15 O 0.026(2) 0.0370(11) 0.118(5) 0.120(17) Uani 0.15 1 d . . P . .
O16 O 0.0211(3) 0.0774(4) 0.1335(8) 0.085(2) Uani 0.7 1 d . . P . .
N1 N 0.21697(14) 0.13966(12) 0.0702(2) 0.0192(5) Uani 1 1 d . . . . .
N2 N 0.35913(15) 0.20749(14) 0.5270(3) 0.0262(6) Uani 1 1 d . . . . .
N3 N 0.59695(14) 0.31847(12) 0.8102(2) 0.0213(5) Uani 1 1 d . . . . .
C1 C 0.17075(18) 0.13178(17) 0.1245(3) 0.0270(7) Uani 1 1 d . . . . .
H1 H 0.1208 0.1177 0.0721 0.032 Uiso 1 1 calc R U . . .
C2 C 0.19256(19) 0.14330(18) 0.2531(3) 0.0288(7) Uani 1 1 d . . . . .
H2 H 0.1580 0.1373 0.2878 0.035 Uiso 1 1 calc R U . . .
C3 C 0.26554(18) 0.16383(15) 0.3316(3) 0.0226(6) Uani 1 1 d . . . . .
C4 C 0.31310(19) 0.17192(18) 0.2750(3) 0.0302(8) Uani 1 1 d . . . . .
H4 H 0.3632 0.1862 0.3247 0.036 Uiso 1 1 calc R U . . .
C5 C 0.28697(19) 0.15898(17) 0.1454(3) 0.0281(7) Uani 1 1 d . . . . .
H5 H 0.3205 0.1641 0.1083 0.034 Uiso 1 1 calc R U . . .
C6 C 0.29317(18) 0.17750(16) 0.4711(3) 0.0241(6) Uani 1 1 d . . . . .
C7 C 0.25405(17) 0.15942(16) 0.5393(3) 0.0251(7) Uani 1 1 d . . . . .
H7 H 0.2077 0.1377 0.4975 0.030 Uiso 1 1 calc R U . . .
C8 C 0.28420(18) 0.17383(16) 0.6695(3) 0.0259(7) Uani 1 1 d . . . . .
C9 C 0.35320(19) 0.20359(17) 0.7285(3) 0.0273(7) Uani 1 1 d . . . . .
H9 H 0.3758 0.2128 0.8179 0.033 Uiso 1 1 calc R U . . .
C10 C 0.38881(18) 0.21974(17) 0.6533(3) 0.0273(7) Uani 1 1 d . . . . .
C11 C 0.46152(18) 0.25318(16) 0.7083(3) 0.0257(7) Uani 1 1 d . . . . .
C12 C 0.51962(19) 0.23925(17) 0.8300(3) 0.0284(7) Uani 1 1 d . . . . .
H12 H 0.5136 0.2075 0.8803 0.034 Uiso 1 1 calc R U . . .
C13 C 0.58623(18) 0.27243(15) 0.8764(3) 0.0240(6) Uani 1 1 d . . . . .
H13 H 0.6259 0.2621 0.9585 0.029 Uiso 1 1 calc R U . . .
C14 C 0.54073(18) 0.33163(17) 0.6926(3) 0.0273(7) Uani 1 1 d . . . . .
H14 H 0.5479 0.3641 0.6449 0.033 Uiso 1 1 calc R U . . .
C15 C 0.47340(19) 0.30004(17) 0.6386(3) 0.0291(7) Uani 1 1 d . . . . .
H15 H 0.4355 0.3101 0.5547 0.035 Uiso 1 1 calc R U . . .
C16 C 0.24370(17) 0.15646(15) 0.7469(3) 0.0232(6) Uani 1 1 d . . . . .
C17 C 0.1460(2) 0.0000 0.8739(4) 0.0192(8) Uani 1 2 d S T P . .
C18 C 0.2325(2) 0.0000 0.9174(4) 0.0202(8) Uani 1 2 d S T P . .
O5 O 0.5000 0.1197(8) 1.0000 0.118(8) Uani 0.4 2 d S T P . .
O6 O 0.4312(13) 0.0880(11) 1.000(3) 0.097(7) Uani 0.2 1 d . U P . .
 
loop_
 _atom_site_aniso_label
 _atom_site_aniso_U_11
 _atom_site_aniso_U_22
 _atom_site_aniso_U_33
 _atom_site_aniso_U_23
 _atom_site_aniso_U_13
 _atom_site_aniso_U_12
Ni1 0.0186(3) 0.0220(3) 0.0155(3) -0.00074(18) 0.0102(2) -0.00037(18)
O1 0.0255(11) 0.0376(13) 0.0197(11) -0.0063(9) 0.0145(9) -0.0083(9)
O2 0.0263(11) 0.0275(11) 0.0178(10) -0.0017(8) 0.0138(9) -0.0036(9)
O3 0.0171(10) 0.0249(11) 0.0314(11) -0.0007(9) 0.0134(9) -0.0010(8)
O4 0.0178(10) 0.0230(11) 0.0255(11) -0.0008(9) 0.0122(8) 0.0001(8)
O8 0.115(11) 0.066(7) 0.134(12) 0.000 0.037(10) 0.000
O9 0.12(3) 0.012(11) 0.17(4) 0.000 0.05(3) 0.000
O10 0.15(2) 0.10(2) 0.091(16) -0.048(14) -0.080(16) 0.078(19)
O11 0.105(14) 0.060(10) 0.058(9) -0.013(8) -0.030(9) 0.000(10)
O12 0.041(10) 0.061(12) 0.20(3) 0.000 -0.029(14) 0.000
O13 0.122(8) 0.062(5) 0.098(7) 0.000 0.033(6) 0.000
O14 0.121(9) 0.107(8) 0.102(8) 0.000 0.064(7) 0.000
O15 0.12(3) 0.017(11) 0.30(5) -0.004(17) 0.16(4) 0.005(13)
O16 0.049(3) 0.084(5) 0.143(6) -0.007(4) 0.061(4) -0.012(3)
N1 0.0212(12) 0.0232(12) 0.0161(11) 0.0008(10) 0.0110(10) -0.0010(10)
N2 0.0230(13) 0.0403(16) 0.0180(12) -0.0033(11) 0.0115(10) -0.0081(11)
N3 0.0230(12) 0.0256(13) 0.0174(12) -0.0021(10) 0.0111(10) -0.0033(10)
C1 0.0212(15) 0.0421(19) 0.0205(15) -0.0036(13) 0.0118(13) -0.0059(13)
C2 0.0244(15) 0.047(2) 0.0208(15) -0.0032(14) 0.0155(13) -0.0077(14)
C3 0.0241(15) 0.0300(16) 0.0161(14) 0.0002(12) 0.0112(12) -0.0016(12)
C4 0.0243(15) 0.048(2) 0.0198(15) -0.0063(14) 0.0117(13) -0.0129(14)
C5 0.0268(15) 0.0418(19) 0.0216(15) -0.0039(13) 0.0161(13) -0.0093(14)
C6 0.0243(15) 0.0330(16) 0.0171(14) -0.0035(12) 0.0111(12) -0.0049(13)
C7 0.0211(14) 0.0374(18) 0.0195(14) -0.0032(13) 0.0114(12) -0.0061(13)
C8 0.0263(15) 0.0360(17) 0.0200(15) -0.0027(13) 0.0143(13) -0.0056(13)
C9 0.0275(16) 0.0405(19) 0.0160(14) -0.0053(13) 0.0119(12) -0.0079(14)
C10 0.0254(15) 0.0396(18) 0.0192(15) -0.0042(13) 0.0120(13) -0.0095(14)
C11 0.0243(15) 0.0366(17) 0.0190(14) -0.0044(13) 0.0121(12) -0.0082(13)
C12 0.0296(16) 0.0369(18) 0.0198(15) -0.0017(13) 0.0122(13) -0.0105(14)
C13 0.0253(15) 0.0270(16) 0.0191(14) -0.0012(12) 0.0096(12) -0.0041(12)
C14 0.0275(16) 0.0359(18) 0.0188(15) 0.0017(13) 0.0108(13) -0.0049(13)
C15 0.0272(16) 0.0415(19) 0.0170(14) 0.0001(13) 0.0087(12) -0.0069(14)
C16 0.0244(15) 0.0309(16) 0.0180(14) -0.0006(12) 0.0129(12) -0.0019(12)
C17 0.0195(19) 0.023(2) 0.0184(19) 0.000 0.0111(16) 0.000
C18 0.0188(19) 0.026(2) 0.0196(19) 0.000 0.0121(16) 0.000
O5 0.19(2) 0.050(9) 0.115(16) 0.000 0.067(16) 0.000
O6 0.065(9) 0.074(10) 0.128(11) 0.021(8) 0.024(7) -0.023(7)
 
_geom_special_details
;
 All esds (except the esd in the dihedral angle between two l.s. planes)
 are estimated using the full covariance matrix.  The cell esds are taken
 into account individually in the estimation of esds in distances, angles
 and torsion angles; correlations between esds in cell parameters are only
 used when they are defined by crystal symmetry.  An approximate (isotropic)
 treatment of cell esds is used for estimating esds involving l.s. planes.
;
 
loop_
 _geom_bond_atom_site_label_1
 _geom_bond_atom_site_label_2
 _geom_bond_distance
 _geom_bond_site_symmetry_2
 _geom_bond_publ_flag
Ni1 N1 2.031(2) 1_556 ?
Ni1 O4 2.053(2) . ?
Ni1 N3 2.054(3) 8_455 ?
Ni1 O3 2.070(2) . ?
Ni1 O2 2.100(2) . ?
Ni1 O1 2.146(2) . ?
Ni1 C16 2.423(3) . ?
O1 C16 1.262(4) . ?
O2 C16 1.257(4) . ?
O3 C18 1.253(3) . ?
O4 C17 1.253(3) . ?
O8 O9 1.33(5) . ?
O10 O10 0.86(5) 6 ?
O11 O12 1.53(3) . ?
O12 O11 1.53(3) 2_556 ?
O15 O16 0.91(2) . ?
O15 O15 1.62(5) 6 ?
N1 C5 1.332(4) . ?
N1 C1 1.341(4) . ?
N1 Ni1 2.031(2) 1_554 ?
N2 C10 1.340(4) . ?
N2 C6 1.340(4) . ?
N3 C13 1.341(4) . ?
N3 C14 1.349(4) . ?
N3 Ni1 2.054(3) 8 ?
C1 C2 1.380(5) . ?
C1 H1 0.9500 . ?
C2 C3 1.392(5) . ?
C2 H2 0.9500 . ?
C3 C4 1.386(4) . ?
C3 C6 1.489(4) . ?
C4 C5 1.384(4) . ?
C4 H4 0.9500 . ?
C5 H5 0.9500 . ?
C6 C7 1.396(4) . ?
C7 C8 1.390(4) . ?
C7 H7 0.9500 . ?
C8 C9 1.386(4) . ?
C8 C16 1.503(4) . ?
C9 C10 1.397(4) . ?
C9 H9 0.9500 . ?
C10 C11 1.480(4) . ?
C11 C15 1.391(5) . ?
C11 C12 1.396(5) . ?
C12 C13 1.386(4) . ?
C12 H12 0.9500 . ?
C13 H13 0.9500 . ?
C14 C15 1.378(5) . ?
C14 H14 0.9500 . ?
C15 H15 0.9500 . ?
C17 O4 1.253(3) 6 ?
C17 C18 1.558(6) . ?
C18 O3 1.253(3) 6 ?
O5 O6 1.53(2) 2_657 ?
O5 O6 1.53(2) . ?
 
loop_
 _geom_angle_atom_site_label_1
 _geom_angle_atom_site_label_2
 _geom_angle_atom_site_label_3
 _geom_angle
 _geom_angle_site_symmetry_1
 _geom_angle_site_symmetry_3
 _geom_angle_publ_flag
N1 Ni1 O4 97.03(10) 1_556 . ?
N1 Ni1 N3 95.47(10) 1_556 8_455 ?
O4 Ni1 N3 89.44(10) . 8_455 ?
N1 Ni1 O3 90.36(10) 1_556 . ?
O4 Ni1 O3 81.37(9) . . ?
N3 Ni1 O3 169.66(10) 8_455 . ?
N1 Ni1 O2 99.50(9) 1_556 . ?
O4 Ni1 O2 160.81(9) . . ?
N3 Ni1 O2 98.61(10) 8_455 . ?
O3 Ni1 O2 88.81(9) . . ?
N1 Ni1 O1 161.75(10) 1_556 . ?
O4 Ni1 O1 100.27(9) . . ?
N3 Ni1 O1 90.48(10) 8_455 . ?
O3 Ni1 O1 86.55(9) . . ?
O2 Ni1 O1 62.49(8) . . ?
N1 Ni1 C16 130.51(11) 1_556 . ?
O4 Ni1 C16 130.73(10) . . ?
N3 Ni1 C16 96.92(11) 8_455 . ?
O3 Ni1 C16 85.66(10) . . ?
O2 Ni1 C16 31.24(10) . . ?
O1 Ni1 C16 31.33(10) . . ?
C16 O1 Ni1 86.53(17) . . ?
C16 O2 Ni1 88.70(18) . . ?
C18 O3 Ni1 111.9(2) . . ?
C17 O4 Ni1 112.6(2) . . ?
O11 O12 O11 161(2) . 2_556 ?
O16 O15 O15 165(2) . 6 ?
C5 N1 C1 117.7(3) . . ?
C5 N1 Ni1 118.3(2) . 1_554 ?
C1 N1 Ni1 124.0(2) . 1_554 ?
C10 N2 C6 118.5(3) . . ?
C13 N3 C14 118.0(3) . . ?
C13 N3 Ni1 125.0(2) . 8 ?
C14 N3 Ni1 116.6(2) . 8 ?
N1 C1 C2 122.8(3) . . ?
N1 C1 H1 118.6 . . ?
C2 C1 H1 118.6 . . ?
C1 C2 C3 119.5(3) . . ?
C1 C2 H2 120.3 . . ?
C3 C2 H2 120.3 . . ?
C4 C3 C2 117.4(3) . . ?
C4 C3 C6 119.9(3) . . ?
C2 C3 C6 122.7(3) . . ?
C5 C4 C3 119.5(3) . . ?
C5 C4 H4 120.3 . . ?
C3 C4 H4 120.3 . . ?
N1 C5 C4 123.0(3) . . ?
N1 C5 H5 118.5 . . ?
C4 C5 H5 118.5 . . ?
N2 C6 C7 122.4(3) . . ?
N2 C6 C3 115.1(3) . . ?
C7 C6 C3 122.5(3) . . ?
C8 C7 C6 118.7(3) . . ?
C8 C7 H7 120.7 . . ?
C6 C7 H7 120.7 . . ?
C9 C8 C7 119.2(3) . . ?
C9 C8 C16 120.0(3) . . ?
C7 C8 C16 120.9(3) . . ?
C8 C9 C10 118.4(3) . . ?
C8 C9 H9 120.8 . . ?
C10 C9 H9 120.8 . . ?
N2 C10 C9 122.8(3) . . ?
N2 C10 C11 115.5(3) . . ?
C9 C10 C11 121.7(3) . . ?
C15 C11 C12 118.1(3) . . ?
C15 C11 C10 120.0(3) . . ?
C12 C11 C10 121.9(3) . . ?
C13 C12 C11 119.1(3) . . ?
C13 C12 H12 120.4 . . ?
C11 C12 H12 120.4 . . ?
N3 C13 C12 122.7(3) . . ?
N3 C13 H13 118.7 . . ?
C12 C13 H13 118.7 . . ?
N3 C14 C15 122.9(3) . . ?
N3 C14 H14 118.6 . . ?
C15 C14 H14 118.6 . . ?
C14 C15 C11 119.2(3) . . ?
C14 C15 H15 120.4 . . ?
C11 C15 H15 120.4 . . ?
O2 C16 O1 122.0(3) . . ?
O2 C16 C8 119.0(3) . . ?
O1 C16 C8 119.0(3) . . ?
O2 C16 Ni1 60.06(15) . . ?
O1 C16 Ni1 62.15(15) . . ?
C8 C16 Ni1 175.1(2) . . ?
O4 C17 O4 126.6(4) 6 . ?
O4 C17 C18 116.71(19) 6 . ?
O4 C17 C18 116.70(19) . . ?
O3 C18 O3 126.2(4) 6 . ?
O3 C18 C17 116.91(19) 6 . ?
O3 C18 C17 116.91(19) . . ?
O6 O5 O6 126(2) 2_657 . ?
 
_refine_diff_density_max    1.260
_refine_diff_density_min   -0.481
_refine_diff_density_rms    0.155

# start Validation Reply Form
_vrf_PLAT601_complex1-100K
;
PROBLEM: Structure Contains Solvent Accessible VOIDS of . 460 Ang3
RESPONSE: There are one-dimension channels in this complex,
in which some disordered water molecules exist.
; 
# end Validation Reply Form

#===END

#==========================================================================

data_complex1-100k-sq

_audit_creation_method            SHELXL-2013
_chemical_name_systematic
;
 ?
;
_chemical_name_common             ?
_chemical_melting_point           ?
_chemical_formula_moiety          ?
_chemical_formula_sum
 'C34 H20 N6 Ni2 O8' 
_chemical_formula_weight          757.98

loop_
 _atom_type_symbol
 _atom_type_description
 _atom_type_scat_dispersion_real
 _atom_type_scat_dispersion_imag
 _atom_type_scat_source
 'C'  'C'   0.0181   0.0091
 'International Tables Vol C Tables 4.2.6.8 and 6.1.1.4'
 'H'  'H'   0.0000   0.0000
 'International Tables Vol C Tables 4.2.6.8 and 6.1.1.4'
 'N'  'N'   0.0311   0.0180
 'International Tables Vol C Tables 4.2.6.8 and 6.1.1.4'
 'O'  'O'   0.0492   0.0322
 'International Tables Vol C Tables 4.2.6.8 and 6.1.1.4'
 'Ni'  'Ni'  -3.0029   0.5091
 'International Tables Vol C Tables 4.2.6.8 and 6.1.1.4'
 
_space_group_crystal_system       monoclinic
_space_group_IT_number            12
_space_group_name_H-M_alt         'C 2/m'
_space_group_name_Hall            '-C 2y'
 
_shelx_space_group_comment
;
The symmetry employed for this shelxl refinement is uniquely defined
by the following loop, which should always be used as a source of
symmetry information in preference to the above space-group names.
They are only intended as comments.
;
 
loop_
 _space_group_symop_operation_xyz
 'x, y, z'
 '-x, y, -z'
 'x+1/2, y+1/2, z'
 '-x+1/2, y+1/2, -z'
 '-x, -y, -z'
 'x, -y, z'
 '-x+1/2, -y+1/2, -z'
 'x+1/2, -y+1/2, z'
 
_cell_length_a                    19.8663(4)
_cell_length_b                    21.8289(3)
_cell_length_c                    11.6384(2)
_cell_angle_alpha                 90
_cell_angle_beta                  116.935(3)
_cell_angle_gamma                 90
_cell_volume                      4499.59(17)
_cell_formula_units_Z             4
_cell_measurement_temperature   100.01(13) 
_cell_measurement_reflns_used   4769
_cell_measurement_theta_min     4.0350
_cell_measurement_theta_max     72.5410
 
_exptl_crystal_description        prism 
_exptl_crystal_colour             green 
_exptl_crystal_density_meas       ? 
_exptl_crystal_density_method     ?              
_exptl_crystal_density_diffrn     1.119          
_exptl_crystal_F_000              1544
_exptl_transmission_factor_min    ?                                             
_exptl_transmission_factor_max    ?                                             
_exptl_crystal_size_max           0.110
_exptl_crystal_size_mid           0.040
_exptl_crystal_size_min           0.030
_exptl_absorpt_coefficient_mu     1.428
_shelx_estimated_absorpt_T_min    0.859
_shelx_estimated_absorpt_T_max    0.958
_exptl_absorpt_correction_T_min                   0.75023
_exptl_absorpt_correction_T_max                   1.00000
_exptl_absorpt_correction_type            'multi-scan'
_exptl_absorpt_process_details
;
CrysAlisPro, Agilent Technologies,
Version 1.171.36.28 (release 01-02-2013 CrysAlis171 .NET)
(compiled Feb  1 2013,16:14:44)
Empirical absorption correction using spherical harmonics,
 implemented in SCALE3 ABSPACK scaling algorithm.
;
 
_exptl_special_details
;
 ?
;
 
_diffrn_ambient_temperature       100.01(13)
_diffrn_radiation_wavelength      1.54184
_diffrn_radiation_type            'Cu K\a'
_diffrn_source                    'SuperNova (Cu) X-ray Source'                       
_diffrn_measurement_device_type   'SuperNova, Dual, Cu at zero, Atlas' 
_diffrn_measurement_method        '\w scans'
_diffrn_detector_area_resol_mean  10.5594 
_diffrn_reflns_number             8494
_diffrn_reflns_av_unetI/netI      0.0249
_diffrn_reflns_av_R_equivalents   0.0198
_diffrn_reflns_limit_h_min        -24
_diffrn_reflns_limit_h_max        24
_diffrn_reflns_limit_k_min        -26
_diffrn_reflns_limit_k_max        25
_diffrn_reflns_limit_l_min        -14
_diffrn_reflns_limit_l_max        9
_diffrn_reflns_theta_min          3.213
_diffrn_reflns_theta_max          73.141
_diffrn_reflns_theta_full         67.684
_diffrn_measured_fraction_theta_max   0.956
_diffrn_measured_fraction_theta_full  0.988
_diffrn_reflns_Laue_measured_fraction_max    0.956
_diffrn_reflns_Laue_measured_fraction_full   0.988
_diffrn_reflns_point_group_measured_fraction_max   0.956
_diffrn_reflns_point_group_measured_fraction_full  0.988
_reflns_number_total              4447
_reflns_number_gt                 4013
_reflns_threshold_expression      'I > 2\s(I)'
_reflns_Friedel_coverage          0.000
_reflns_Friedel_fraction_max      .
_reflns_Friedel_fraction_full     .
 
_reflns_special_details
;
 Reflections were merged by SHELXL according to the crystal
 class for the calculation of statistics and refinement.
 
 _reflns_Friedel_fraction is defined as the number of unique
 Friedel pairs measured divided by the number that would be
 possible theoretically, ignoring centric projections and
 systematic absences.
;
 
_computing_data_collection        ?
_computing_cell_refinement        ?
_computing_data_reduction         ?
_computing_structure_solution     ?
_computing_structure_refinement   'SHELXL-2013 (Sheldrick, 2013)'
_computing_molecular_graphics     ?
_computing_publication_material   ?
 
_refine_special_details
;
 ?
;
_refine_ls_structure_factor_coef  Fsqd
_refine_ls_matrix_type            full
_refine_ls_weighting_scheme       calc
_refine_ls_weighting_details
;
 w=1/[\s^2^(Fo^2^)+(0.0497P)^2^+5.8505P]
 where P=(Fo^2^+2Fc^2^)/3
;
_atom_sites_solution_primary      ?
_atom_sites_solution_secondary    ?
_atom_sites_solution_hydrogens    geom
_refine_ls_hydrogen_treatment     constr
_refine_ls_extinction_method      none
_refine_ls_extinction_coef        .
_refine_ls_number_reflns          4447
_refine_ls_number_parameters      229
_refine_ls_number_restraints      0
_refine_ls_R_factor_all           0.0404
_refine_ls_R_factor_gt            0.0376
_refine_ls_wR_factor_ref          0.1052
_refine_ls_wR_factor_gt           0.1036
_refine_ls_goodness_of_fit_ref    1.084
_refine_ls_restrained_S_all       1.084
_refine_ls_shift/su_max           0.000
_refine_ls_shift/su_mean          0.000

loop_
  _platon_squeeze_void_nr
  _platon_squeeze_void_average_x
  _platon_squeeze_void_average_y
  _platon_squeeze_void_average_z
  _platon_squeeze_void_volume
  _platon_squeeze_void_count_electrons
  _platon_squeeze_void_content
   1 -0.035  0.000 -0.051       897       286 ' '
   2  0.000  0.177  0.000         5         0 ' '
   3 -0.006  0.500 -0.040       897       286 ' '
   4  0.000  0.823  0.000         4         0 ' '
   5  0.500  0.323  0.000         4         0 ' '
   6  0.500  0.677  0.000         5         0 ' '
_platon_squeeze_details                           ?
 
loop_
 _atom_site_label
 _atom_site_type_symbol
 _atom_site_fract_x
 _atom_site_fract_y
 _atom_site_fract_z
 _atom_site_U_iso_or_equiv
 _atom_site_adp_type
 _atom_site_occupancy
 _atom_site_site_symmetry_order  
 _atom_site_calc_flag
 _atom_site_refinement_flags_posn
 _atom_site_refinement_flags_adp
 _atom_site_refinement_flags_occupancy
 _atom_site_disorder_assembly
 _atom_site_disorder_group
Ni1 Ni 0.18726(2) 0.12247(2) 0.88181(3) 0.01786(11) Uani 1 1 d . . . . .
O1 O 0.18811(8) 0.12047(7) 0.69827(13) 0.0263(3) Uani 1 1 d . . . . .
O2 O 0.26616(7) 0.17834(6) 0.85829(12) 0.0231(3) Uani 1 1 d . . . . .
O3 O 0.26407(7) 0.05120(6) 0.93375(13) 0.0237(3) Uani 1 1 d . . . . .
O4 O 0.11478(7) 0.05128(6) 0.85927(12) 0.0218(3) Uani 1 1 d . . . . .
N1 N 0.21686(9) 0.13958(7) 0.07009(14) 0.0199(3) Uani 1 1 d . . . . .
N2 N 0.35900(9) 0.20764(8) 0.52682(15) 0.0266(4) Uani 1 1 d . . . . .
N3 N 0.59699(9) 0.31844(8) 0.81041(14) 0.0216(3) Uani 1 1 d . . . . .
C1 C 0.17089(11) 0.13173(10) 0.12453(19) 0.0277(4) Uani 1 1 d . . . . .
H1 H 0.1210 0.1175 0.0724 0.033 Uiso 1 1 calc R U . . .
C2 C 0.19297(11) 0.14341(11) 0.25347(19) 0.0290(4) Uani 1 1 d . . . . .
H2 H 0.1584 0.1375 0.2882 0.035 Uiso 1 1 calc R U . . .
C3 C 0.26531(11) 0.16371(9) 0.33142(17) 0.0231(4) Uani 1 1 d . . . . .
C4 C 0.31314(12) 0.17180(11) 0.27489(19) 0.0305(5) Uani 1 1 d . . . . .
H4 H 0.3634 0.1859 0.3248 0.037 Uiso 1 1 calc R U . . .
C5 C 0.28692(11) 0.15917(10) 0.14549(19) 0.0287(4) Uani 1 1 d . . . . .
H5 H 0.3203 0.1647 0.1083 0.034 Uiso 1 1 calc R U . . .
C6 C 0.29315(11) 0.17741(10) 0.47103(17) 0.0246(4) Uani 1 1 d . . . . .
C7 C 0.25381(11) 0.15946(10) 0.53931(18) 0.0256(4) Uani 1 1 d . . . . .
H7 H 0.2073 0.1380 0.4975 0.031 Uiso 1 1 calc R U . . .
C8 C 0.28421(11) 0.17373(10) 0.66934(18) 0.0259(4) Uani 1 1 d . . . . .
C9 C 0.35327(11) 0.20371(10) 0.72858(18) 0.0283(4) Uani 1 1 d . . . . .
H9 H 0.3756 0.2131 0.8179 0.034 Uiso 1 1 calc R U . . .
C10 C 0.38896(11) 0.21963(10) 0.65350(18) 0.0272(4) Uani 1 1 d . . . . .
C11 C 0.46158(11) 0.25314(10) 0.70838(18) 0.0268(4) Uani 1 1 d . . . . .
C12 C 0.51978(12) 0.23909(10) 0.82989(19) 0.0285(4) Uani 1 1 d . . . . .
H12 H 0.5139 0.2072 0.8802 0.034 Uiso 1 1 calc R U . . .
C13 C 0.58616(11) 0.27230(9) 0.87583(18) 0.0248(4) Uani 1 1 d . . . . .
H13 H 0.6259 0.2619 0.9577 0.030 Uiso 1 1 calc R U . . .
C14 C 0.54082(11) 0.33174(10) 0.69279(18) 0.0275(4) Uani 1 1 d . . . . .
H14 H 0.5479 0.3643 0.6453 0.033 Uiso 1 1 calc R U . . .
C15 C 0.47345(12) 0.29993(11) 0.63865(18) 0.0296(4) Uani 1 1 d . . . . .
H15 H 0.4356 0.3099 0.5547 0.035 Uiso 1 1 calc R U . . .
C16 C 0.24365(11) 0.15660(9) 0.74666(17) 0.0232(4) Uani 1 1 d . . . . .
C17 C 0.14624(14) 0.0000 0.8742(2) 0.0201(5) Uani 1 2 d S T P . .
C18 C 0.23249(14) 0.0000 0.9172(2) 0.0209(5) Uani 1 2 d S T P . .
 
loop_
 _atom_site_aniso_label
 _atom_site_aniso_U_11
 _atom_site_aniso_U_22
 _atom_site_aniso_U_33
 _atom_site_aniso_U_23
 _atom_site_aniso_U_13
 _atom_site_aniso_U_12
Ni1 0.01841(17) 0.02219(18) 0.01579(17) -0.00073(11) 0.01021(13) -0.00051(11)
O1 0.0247(7) 0.0385(8) 0.0209(6) -0.0068(6) 0.0148(5) -0.0088(6)
O2 0.0265(7) 0.0283(7) 0.0187(6) -0.0015(5) 0.0140(5) -0.0039(5)
O3 0.0178(6) 0.0239(7) 0.0320(7) -0.0014(6) 0.0136(5) -0.0016(5)
O4 0.0184(6) 0.0230(7) 0.0268(6) -0.0003(5) 0.0126(5) 0.0009(5)
N1 0.0221(7) 0.0242(8) 0.0164(7) 0.0010(6) 0.0112(6) -0.0008(6)
N2 0.0241(8) 0.0392(10) 0.0193(7) -0.0041(7) 0.0122(6) -0.0078(7)
N3 0.0232(8) 0.0258(8) 0.0180(7) -0.0024(6) 0.0111(6) -0.0029(6)
C1 0.0216(9) 0.0420(12) 0.0215(9) -0.0047(8) 0.0115(8) -0.0068(8)
C2 0.0243(9) 0.0469(12) 0.0214(9) -0.0032(9) 0.0152(8) -0.0069(9)
C3 0.0247(9) 0.0297(10) 0.0179(8) -0.0007(7) 0.0123(7) -0.0032(7)
C4 0.0251(9) 0.0477(13) 0.0219(9) -0.0066(9) 0.0135(8) -0.0123(9)
C5 0.0267(9) 0.0430(12) 0.0230(9) -0.0031(8) 0.0169(8) -0.0089(9)
C6 0.0241(9) 0.0343(10) 0.0176(9) -0.0032(7) 0.0115(7) -0.0055(8)
C7 0.0220(9) 0.0370(11) 0.0206(9) -0.0035(8) 0.0121(7) -0.0056(8)
C8 0.0254(9) 0.0351(10) 0.0213(9) -0.0014(8) 0.0142(8) -0.0044(8)
C9 0.0282(10) 0.0416(12) 0.0173(8) -0.0055(8) 0.0124(8) -0.0095(9)
C10 0.0247(9) 0.0389(11) 0.0200(9) -0.0041(8) 0.0120(8) -0.0091(8)
C11 0.0258(9) 0.0382(11) 0.0201(9) -0.0056(8) 0.0138(8) -0.0086(8)
C12 0.0306(10) 0.0356(11) 0.0213(9) -0.0014(8) 0.0134(8) -0.0093(8)
C13 0.0270(9) 0.0283(10) 0.0189(8) -0.0011(7) 0.0102(7) -0.0028(8)
C14 0.0280(10) 0.0360(11) 0.0190(9) 0.0017(8) 0.0111(8) -0.0052(8)
C15 0.0273(10) 0.0428(12) 0.0176(8) -0.0003(8) 0.0093(8) -0.0057(9)
C16 0.0245(9) 0.0302(10) 0.0182(8) -0.0004(7) 0.0127(7) -0.0016(8)
C17 0.0192(12) 0.0250(13) 0.0188(12) 0.000 0.0111(10) 0.000
C18 0.0183(12) 0.0284(13) 0.0198(12) 0.000 0.0118(10) 0.000
 
_geom_special_details
;
 All esds (except the esd in the dihedral angle between two l.s. planes)
 are estimated using the full covariance matrix.  The cell esds are taken
 into account individually in the estimation of esds in distances, angles
 and torsion angles; correlations between esds in cell parameters are only
 used when they are defined by crystal symmetry.  An approximate (isotropic)
 treatment of cell esds is used for estimating esds involving l.s. planes.
;
 
loop_
 _geom_bond_atom_site_label_1
 _geom_bond_atom_site_label_2
 _geom_bond_distance
 _geom_bond_site_symmetry_2
 _geom_bond_publ_flag
Ni1 N1 2.0297(15) 1_556 ?
Ni1 O4 2.0530(13) . ?
Ni1 N3 2.0542(16) 8_455 ?
Ni1 O3 2.0686(13) . ?
Ni1 O2 2.0994(13) . ?
Ni1 O1 2.1443(13) . ?
Ni1 C16 2.4251(18) . ?
O1 C16 1.262(2) . ?
O2 C16 1.260(2) . ?
O3 C18 1.2531(17) . ?
O4 C17 1.2552(17) . ?
N1 C5 1.336(2) . ?
N1 C1 1.338(2) . ?
N1 Ni1 2.0296(15) 1_554 ?
N2 C6 1.341(2) . ?
N2 C10 1.342(2) . ?
N3 C13 1.337(3) . ?
N3 C14 1.349(2) . ?
N3 Ni1 2.0543(16) 8 ?
C1 C2 1.383(3) . ?
C1 H1 0.9500 . ?
C2 C3 1.380(3) . ?
C2 H2 0.9500 . ?
C3 C4 1.390(3) . ?
C3 C6 1.490(2) . ?
C4 C5 1.380(3) . ?
C4 H4 0.9500 . ?
C5 H5 0.9500 . ?
C6 C7 1.399(3) . ?
C7 C8 1.387(3) . ?
C7 H7 0.9500 . ?
C8 C9 1.389(3) . ?
C8 C16 1.502(2) . ?
C9 C10 1.396(3) . ?
C9 H9 0.9500 . ?
C10 C11 1.480(3) . ?
C11 C15 1.389(3) . ?
C11 C12 1.396(3) . ?
C12 C13 1.383(3) . ?
C12 H12 0.9500 . ?
C13 H13 0.9500 . ?
C14 C15 1.381(3) . ?
C14 H14 0.9500 . ?
C15 H15 0.9500 . ?
C17 O4 1.2552(17) 6 ?
C17 C18 1.552(3) . ?
C18 O3 1.2531(17) 6 ?
 
loop_
 _geom_angle_atom_site_label_1
 _geom_angle_atom_site_label_2
 _geom_angle_atom_site_label_3
 _geom_angle
 _geom_angle_site_symmetry_1
 _geom_angle_site_symmetry_3
 _geom_angle_publ_flag
N1 Ni1 O4 96.93(6) 1_556 . ?
N1 Ni1 N3 95.40(6) 1_556 8_455 ?
O4 Ni1 N3 89.45(6) . 8_455 ?
N1 Ni1 O3 90.47(6) 1_556 . ?
O4 Ni1 O3 81.36(5) . . ?
N3 Ni1 O3 169.64(6) 8_455 . ?
N1 Ni1 O2 99.53(6) 1_556 . ?
O4 Ni1 O2 160.88(5) . . ?
N3 Ni1 O2 98.57(6) 8_455 . ?
O3 Ni1 O2 88.83(5) . . ?
N1 Ni1 O1 161.82(6) 1_556 . ?
O4 Ni1 O1 100.30(5) . . ?
N3 Ni1 O1 90.53(6) 8_455 . ?
O3 Ni1 O1 86.45(6) . . ?
O2 Ni1 O1 62.53(5) . . ?
N1 Ni1 C16 130.60(6) 1_556 . ?
O4 Ni1 C16 130.77(6) . . ?
N3 Ni1 C16 96.88(6) 8_455 . ?
O3 Ni1 C16 85.65(6) . . ?
O2 Ni1 C16 31.29(6) . . ?
O1 Ni1 C16 31.31(6) . . ?
C16 O1 Ni1 86.71(10) . . ?
C16 O2 Ni1 88.77(11) . . ?
C18 O3 Ni1 111.98(13) . . ?
C17 O4 Ni1 112.39(12) . . ?
C5 N1 C1 117.50(16) . . ?
C5 N1 Ni1 118.32(12) . 1_554 ?
C1 N1 Ni1 124.18(13) . 1_554 ?
C6 N2 C10 118.53(16) . . ?
C13 N3 C14 117.86(17) . . ?
C13 N3 Ni1 125.36(13) . 8 ?
C14 N3 Ni1 116.40(13) . 8 ?
N1 C1 C2 122.77(18) . . ?
N1 C1 H1 118.6 . . ?
C2 C1 H1 118.6 . . ?
C3 C2 C1 119.77(17) . . ?
C3 C2 H2 120.1 . . ?
C1 C2 H2 120.1 . . ?
C2 C3 C4 117.47(17) . . ?
C2 C3 C6 122.88(16) . . ?
C4 C3 C6 119.65(17) . . ?
C5 C4 C3 119.34(18) . . ?
C5 C4 H4 120.3 . . ?
C3 C4 H4 120.3 . . ?
N1 C5 C4 123.15(17) . . ?
N1 C5 H5 118.4 . . ?
C4 C5 H5 118.4 . . ?
N2 C6 C7 122.41(17) . . ?
N2 C6 C3 115.17(16) . . ?
C7 C6 C3 122.41(17) . . ?
C8 C7 C6 118.52(18) . . ?
C8 C7 H7 120.7 . . ?
C6 C7 H7 120.7 . . ?
C7 C8 C9 119.44(17) . . ?
C7 C8 C16 120.74(18) . . ?
C9 C8 C16 119.82(17) . . ?
C8 C9 C10 118.30(17) . . ?
C8 C9 H9 120.8 . . ?
C10 C9 H9 120.8 . . ?
N2 C10 C9 122.74(18) . . ?
N2 C10 C11 115.54(16) . . ?
C9 C10 C11 121.68(17) . . ?
C15 C11 C12 118.12(18) . . ?
C15 C11 C10 120.09(18) . . ?
C12 C11 C10 121.78(18) . . ?
C13 C12 C11 118.92(18) . . ?
C13 C12 H12 120.5 . . ?
C11 C12 H12 120.5 . . ?
N3 C13 C12 123.09(18) . . ?
N3 C13 H13 118.5 . . ?
C12 C13 H13 118.5 . . ?
N3 C14 C15 122.69(18) . . ?
N3 C14 H14 118.7 . . ?
C15 C14 H14 118.7 . . ?
C14 C15 C11 119.28(19) . . ?
C14 C15 H15 120.4 . . ?
C11 C15 H15 120.4 . . ?
O2 C16 O1 121.71(16) . . ?
O2 C16 C8 119.22(17) . . ?
O1 C16 C8 119.08(16) . . ?
O2 C16 Ni1 59.94(9) . . ?
O1 C16 Ni1 61.98(9) . . ?
C8 C16 Ni1 174.86(15) . . ?
O4 C17 O4 126.2(2) 6 . ?
O4 C17 C18 116.89(11) 6 . ?
O4 C17 C18 116.89(11) . . ?
O3 C18 O3 126.2(2) . 6 ?
O3 C18 C17 116.88(11) . . ?
O3 C18 C17 116.89(11) 6 . ?
 
_refine_diff_density_max    0.330
_refine_diff_density_min   -0.356
_refine_diff_density_rms    0.061

#===END

#==========================================================================


data_complex1-433K

_audit_creation_method            SHELXL-2013
_chemical_name_systematic
;
 ?
;
_chemical_name_common             ?
_chemical_melting_point           ?
_chemical_formula_moiety          'C34 H20 N6 Ni2 O8'
_chemical_formula_sum
 'C34 H20 N6 Ni2 O8' 
_chemical_formula_weight          757.98

loop_
 _atom_type_symbol
 _atom_type_description
 _atom_type_scat_dispersion_real
 _atom_type_scat_dispersion_imag
 _atom_type_scat_source
 'C'  'C'   0.0181   0.0091
 'International Tables Vol C Tables 4.2.6.8 and 6.1.1.4'
 'H'  'H'   0.0000   0.0000
 'International Tables Vol C Tables 4.2.6.8 and 6.1.1.4'
 'N'  'N'   0.0311   0.0180
 'International Tables Vol C Tables 4.2.6.8 and 6.1.1.4'
 'O'  'O'   0.0492   0.0322
 'International Tables Vol C Tables 4.2.6.8 and 6.1.1.4'
 'Ni'  'Ni'  -3.0029   0.5091
 'International Tables Vol C Tables 4.2.6.8 and 6.1.1.4'
 
_space_group_crystal_system       monoclinic
_space_group_IT_number            12
_space_group_name_H-M_alt         'C 2/m'
_space_group_name_Hall            '-C 2y'
 
_shelx_space_group_comment
;
The symmetry employed for this shelxl refinement is uniquely defined
by the following loop, which should always be used as a source of
symmetry information in preference to the above space-group names.
They are only intended as comments.
;
 
loop_
 _space_group_symop_operation_xyz
 'x, y, z'
 '-x, y, -z'
 'x+1/2, y+1/2, z'
 '-x+1/2, y+1/2, -z'
 '-x, -y, -z'
 'x, -y, z'
 '-x+1/2, -y+1/2, -z'
 'x+1/2, -y+1/2, z'
 
_cell_length_a                    19.513(3)
_cell_length_b                    22.317(3)
_cell_length_c                    11.6320(15)
_cell_angle_alpha                 90
_cell_angle_beta                  116.608(18)
_cell_angle_gamma                 90
_cell_volume                      4529.1(12)
_cell_formula_units_Z             4
_cell_measurement_temperature     433.00(10)
_cell_measurement_reflns_used     2870 
_cell_measurement_theta_min       3.9490 
_cell_measurement_theta_max       72.5880 
 
_exptl_crystal_description        prism 
_exptl_crystal_colour             green 
_exptl_crystal_density_meas       ? 
_exptl_crystal_density_method     ?              
_exptl_crystal_density_diffrn     1.112          
_exptl_crystal_F_000              1544
_exptl_transmission_factor_min    ?                                             
_exptl_transmission_factor_max    ?                                             
_exptl_crystal_size_max           0.110
_exptl_crystal_size_mid           0.040
_exptl_crystal_size_min           0.030
_exptl_absorpt_coefficient_mu     1.418
_shelx_estimated_absorpt_T_min    0.895
_shelx_estimated_absorpt_T_max    0.959
_exptl_absorpt_correction_T_min                   0.87082
_exptl_absorpt_correction_T_max                   1.00000
_exptl_absorpt_correction_type            'multi-scan'
_exptl_absorpt_process_details
;
CrysAlisPro, Agilent Technologies,
Version 1.171.36.28 (release 01-02-2013 CrysAlis171 .NET)
(compiled Feb  1 2013,16:14:44)
Empirical absorption correction using spherical harmonics,
 implemented in SCALE3 ABSPACK scaling algorithm.
;
 
_exptl_special_details
;
 ?
;
 
_diffrn_ambient_temperature       433.00(10)
_diffrn_radiation_wavelength      1.54184
_diffrn_radiation_type            'Cu K\a'
_diffrn_source                    'SuperNova (Cu) X-ray Source'                       
_diffrn_measurement_device_type   'SuperNova, Dual, Cu at zero, Atlas' 
_diffrn_measurement_method        '\w scans'
_diffrn_detector_area_resol_mean  10.5594 
_diffrn_reflns_number             8588
_diffrn_reflns_av_unetI/netI      0.0301
_diffrn_reflns_av_R_equivalents   0.0247
_diffrn_reflns_limit_h_min        -22
_diffrn_reflns_limit_h_max        23
_diffrn_reflns_limit_k_min        -23
_diffrn_reflns_limit_k_max        27
_diffrn_reflns_limit_l_min        -14
_diffrn_reflns_limit_l_max        10
_diffrn_reflns_theta_min          4.251
_diffrn_reflns_theta_max          73.157
_diffrn_reflns_theta_full         67.684
_diffrn_measured_fraction_theta_max   0.949
_diffrn_measured_fraction_theta_full  0.984
_diffrn_reflns_Laue_measured_fraction_max    0.949
_diffrn_reflns_Laue_measured_fraction_full   0.984
_diffrn_reflns_point_group_measured_fraction_max   0.949
_diffrn_reflns_point_group_measured_fraction_full  0.984
_reflns_number_total              4436
_reflns_number_gt                 3547
_reflns_threshold_expression      'I > 2\s(I)'
_reflns_Friedel_coverage          0.000
_reflns_Friedel_fraction_max      .
_reflns_Friedel_fraction_full     .
 
_reflns_special_details
;
 Reflections were merged by SHELXL according to the crystal
 class for the calculation of statistics and refinement.
 
 _reflns_Friedel_fraction is defined as the number of unique
 Friedel pairs measured divided by the number that would be
 possible theoretically, ignoring centric projections and
 systematic absences.
;
 
_computing_data_collection
;
CrysAlisPro, Agilent Technologies,
Version 1.171.36.28 (release 01-02-2013 CrysAlis171 .NET)
(compiled Feb  1 2013,16:14:44)
;
_computing_cell_refinement
;
CrysAlisPro, Agilent Technologies,
Version 1.171.36.28 (release 01-02-2013 CrysAlis171 .NET)
(compiled Feb  1 2013,16:14:44)
;
_computing_data_reduction
;
CrysAlisPro, Agilent Technologies,
Version 1.171.36.28 (release 01-02-2013 CrysAlis171 .NET)
(compiled Feb  1 2013,16:14:44)
;
_computing_structure_solution     ?
_computing_structure_refinement   'SHELXL-2013 (Sheldrick, 2013)'
_computing_molecular_graphics     ?
_computing_publication_material   ?
 
_refine_special_details
;
 ?
;
_refine_ls_structure_factor_coef  Fsqd
_refine_ls_matrix_type            full
_refine_ls_weighting_scheme       calc
_refine_ls_weighting_details
;
 w=1/[\s^2^(Fo^2^)+(0.1469P)^2^+8.2205P]
 where P=(Fo^2^+2Fc^2^)/3
;
_atom_sites_solution_primary      ?
_atom_sites_solution_secondary    ?
_atom_sites_solution_hydrogens    geom
_refine_ls_hydrogen_treatment     constr
_refine_ls_extinction_method      none
_refine_ls_extinction_coef        .
_refine_ls_number_reflns          4436
_refine_ls_number_parameters      229
_refine_ls_number_restraints      0
_refine_ls_R_factor_all           0.0834
_refine_ls_R_factor_gt            0.0709
_refine_ls_wR_factor_ref          0.2465
_refine_ls_wR_factor_gt           0.2299
_refine_ls_goodness_of_fit_ref    1.064
_refine_ls_restrained_S_all       1.064
_refine_ls_shift/su_max           0.000
_refine_ls_shift/su_mean          0.000
 
loop_
 _atom_site_label
 _atom_site_type_symbol
 _atom_site_fract_x
 _atom_site_fract_y
 _atom_site_fract_z
 _atom_site_U_iso_or_equiv
 _atom_site_adp_type
 _atom_site_occupancy
 _atom_site_site_symmetry_order  
 _atom_site_calc_flag
 _atom_site_refinement_flags_posn
 _atom_site_refinement_flags_adp
 _atom_site_refinement_flags_occupancy
 _atom_site_disorder_assembly
 _atom_site_disorder_group
Ni1 Ni 0.18805(4) 0.11842(3) 0.89204(6) 0.0477(3) Uani 1 1 d . . . . .
O1 O 0.18831(19) 0.12057(15) 0.7063(3) 0.0620(8) Uani 1 1 d . . . . .
O2 O 0.26815(19) 0.17531(15) 0.8691(3) 0.0624(8) Uani 1 1 d . . . . .
O3 O 0.26565(15) 0.04990(14) 0.9449(3) 0.0607(8) Uani 1 1 d . . . . .
O4 O 0.11423(15) 0.04978(14) 0.8692(3) 0.0593(7) Uani 1 1 d . . . . .
N1 N 0.2179(2) 0.13630(17) 0.0817(3) 0.0552(8) Uani 1 1 d . . . . .
N2 N 0.3601(2) 0.20743(19) 0.5352(3) 0.0609(9) Uani 1 1 d . . . . .
N3 N 0.5966(2) 0.32227(17) 0.8203(3) 0.0558(8) Uani 1 1 d . . . . .
C1 C 0.1759(3) 0.1240(3) 0.1393(4) 0.0699(14) Uani 1 1 d . . . . .
H1 H 0.1287 0.1058 0.0915 0.084 Uiso 1 1 calc R U . . .
C2 C 0.1975(3) 0.1367(3) 0.2697(5) 0.0793(16) Uani 1 1 d . . . . .
H2 H 0.1646 0.1278 0.3055 0.095 Uiso 1 1 calc R U . . .
C3 C 0.2668(3) 0.1620(2) 0.3422(4) 0.0582(10) Uani 1 1 d . . . . .
C4 C 0.3110(3) 0.1756(3) 0.2813(4) 0.0833(18) Uani 1 1 d . . . . .
H4 H 0.3582 0.1943 0.3261 0.100 Uiso 1 1 calc R U . . .
C5 C 0.2848(3) 0.1612(3) 0.1528(4) 0.0827(18) Uani 1 1 d . . . . .
H5 H 0.3165 0.1696 0.1143 0.099 Uiso 1 1 calc R U . . .
C6 C 0.2945(3) 0.1768(2) 0.4813(4) 0.0571(10) Uani 1 1 d . . . . .
C7 C 0.2560(3) 0.1581(2) 0.5502(4) 0.0592(11) Uani 1 1 d . . . . .
H7 H 0.2110 0.1360 0.5105 0.071 Uiso 1 1 calc R U . . .
C8 C 0.2859(3) 0.1729(2) 0.6798(4) 0.0557(10) Uani 1 1 d . . . . .
C9 C 0.3541(3) 0.2036(2) 0.7365(4) 0.0622(11) Uani 1 1 d . . . . .
H9 H 0.3760 0.2134 0.8234 0.075 Uiso 1 1 calc R U . . .
C10 C 0.3898(3) 0.2198(2) 0.6607(4) 0.0613(11) Uani 1 1 d . . . . .
C11 C 0.4627(3) 0.2538(2) 0.7165(4) 0.0618(11) Uani 1 1 d . . . . .
C12 C 0.5215(3) 0.2414(3) 0.8353(5) 0.0746(14) Uani 1 1 d . . . . .
H12 H 0.5168 0.2100 0.8840 0.089 Uiso 1 1 calc R U . . .
C13 C 0.5879(3) 0.2756(2) 0.8827(4) 0.0667(12) Uani 1 1 d . . . . .
H13 H 0.6279 0.2653 0.9617 0.080 Uiso 1 1 calc R U . . .
C14 C 0.5401(3) 0.3343(3) 0.7045(4) 0.0740(14) Uani 1 1 d . . . . .
H14 H 0.5460 0.3666 0.6594 0.089 Uiso 1 1 calc R U . . .
C15 C 0.4736(3) 0.3017(3) 0.6480(4) 0.0734(14) Uani 1 1 d . . . . .
H15 H 0.4363 0.3111 0.5658 0.088 Uiso 1 1 calc R U . . .
C16 C 0.2446(3) 0.1552(2) 0.7573(4) 0.0544(10) Uani 1 1 d . . . . .
C17 C 0.1460(3) 0.0000 0.8844(5) 0.0491(12) Uani 1 2 d S T P . .
C18 C 0.2340(3) 0.0000 0.9276(5) 0.0501(12) Uani 1 2 d S T P . .
 
loop_
 _atom_site_aniso_label
 _atom_site_aniso_U_11
 _atom_site_aniso_U_22
 _atom_site_aniso_U_33
 _atom_site_aniso_U_23
 _atom_site_aniso_U_13
 _atom_site_aniso_U_12
Ni1 0.0534(4) 0.0556(5) 0.0378(4) -0.0009(3) 0.0238(3) -0.0011(3)
O1 0.0666(18) 0.075(2) 0.0516(17) -0.0099(14) 0.0326(15) -0.0145(15)
O2 0.080(2) 0.073(2) 0.0442(15) -0.0076(14) 0.0368(15) -0.0156(16)
O3 0.0468(14) 0.0617(18) 0.072(2) -0.0008(15) 0.0257(14) -0.0042(13)
O4 0.0480(14) 0.0595(17) 0.0695(19) -0.0009(14) 0.0256(13) 0.0025(13)
N1 0.063(2) 0.069(2) 0.0366(16) -0.0020(15) 0.0247(15) -0.0039(17)
N2 0.070(2) 0.077(2) 0.0418(17) -0.0071(16) 0.0303(17) -0.0172(18)
N3 0.061(2) 0.066(2) 0.0419(17) -0.0028(15) 0.0246(15) -0.0066(16)
C1 0.068(3) 0.106(4) 0.039(2) -0.014(2) 0.026(2) -0.032(3)
C2 0.079(3) 0.121(5) 0.051(3) -0.021(3) 0.042(2) -0.037(3)
C3 0.068(3) 0.074(3) 0.0383(19) -0.0048(18) 0.0281(19) -0.011(2)
C4 0.079(3) 0.134(5) 0.044(2) -0.020(3) 0.033(2) -0.044(3)
C5 0.083(3) 0.132(5) 0.045(2) -0.016(3) 0.040(2) -0.040(3)
C6 0.066(2) 0.071(3) 0.0386(19) -0.0060(18) 0.0267(18) -0.011(2)
C7 0.062(2) 0.079(3) 0.040(2) -0.0082(19) 0.0262(18) -0.017(2)
C8 0.067(2) 0.066(3) 0.042(2) -0.0042(18) 0.0315(19) -0.009(2)
C9 0.074(3) 0.078(3) 0.040(2) -0.0136(19) 0.030(2) -0.021(2)
C10 0.070(3) 0.072(3) 0.047(2) -0.0100(19) 0.031(2) -0.018(2)
C11 0.069(3) 0.075(3) 0.044(2) -0.0085(19) 0.028(2) -0.019(2)
C12 0.087(3) 0.077(3) 0.055(3) 0.006(2) 0.028(2) -0.024(3)
C13 0.074(3) 0.070(3) 0.045(2) 0.002(2) 0.017(2) -0.013(2)
C14 0.076(3) 0.091(4) 0.051(2) 0.014(2) 0.025(2) -0.017(3)
C15 0.077(3) 0.092(4) 0.045(2) 0.003(2) 0.021(2) -0.025(3)
C16 0.065(2) 0.064(2) 0.0413(19) -0.0008(17) 0.0300(18) -0.003(2)
C17 0.047(3) 0.058(3) 0.044(3) 0.000 0.022(2) 0.000
C18 0.049(3) 0.060(3) 0.041(3) 0.000 0.020(2) 0.000
 
_geom_special_details
;
 All esds (except the esd in the dihedral angle between two l.s. planes)
 are estimated using the full covariance matrix.  The cell esds are taken
 into account individually in the estimation of esds in distances, angles
 and torsion angles; correlations between esds in cell parameters are only
 used when they are defined by crystal symmetry.  An approximate (isotropic)
 treatment of cell esds is used for estimating esds involving l.s. planes.
;
 
loop_
 _geom_bond_atom_site_label_1
 _geom_bond_atom_site_label_2
 _geom_bond_distance
 _geom_bond_site_symmetry_2
 _geom_bond_publ_flag
Ni1 O4 2.037(3) . ?
Ni1 O3 2.043(3) . ?
Ni1 N1 2.053(3) 1_556 ?
Ni1 N3 2.073(4) 8_455 ?
Ni1 O2 2.121(3) . ?
Ni1 O1 2.163(3) . ?
Ni1 C16 2.428(4) . ?
O1 C16 1.254(5) . ?
O2 C16 1.252(5) . ?
O3 C18 1.246(4) . ?
O4 C17 1.246(4) . ?
N1 C1 1.298(6) . ?
N1 C5 1.316(6) . ?
N1 Ni1 2.053(3) 1_554 ?
N2 C6 1.335(6) . ?
N2 C10 1.337(5) . ?
N3 C13 1.324(6) . ?
N3 C14 1.331(6) . ?
N3 Ni1 2.073(4) 8 ?
C1 C2 1.409(6) . ?
C1 H1 0.9300 . ?
C2 C3 1.356(7) . ?
C2 H2 0.9300 . ?
C3 C4 1.373(6) . ?
C3 C6 1.495(5) . ?
C4 C5 1.384(6) . ?
C4 H4 0.9300 . ?
C5 H5 0.9300 . ?
C6 C7 1.386(6) . ?
C7 C8 1.391(5) . ?
C7 H7 0.9300 . ?
C8 C9 1.376(6) . ?
C8 C16 1.506(5) . ?
C9 C10 1.393(6) . ?
C9 H9 0.9300 . ?
C10 C11 1.481(6) . ?
C11 C12 1.372(7) . ?
C11 C15 1.404(7) . ?
C12 C13 1.388(7) . ?
C12 H12 0.9300 . ?
C13 H13 0.9300 . ?
C14 C15 1.373(7) . ?
C14 H14 0.9300 . ?
C15 H15 0.9300 . ?
C17 O4 1.246(4) 6 ?
C17 C18 1.557(8) . ?
C18 O3 1.245(4) 6 ?
 
loop_
 _geom_angle_atom_site_label_1
 _geom_angle_atom_site_label_2
 _geom_angle_atom_site_label_3
 _geom_angle
 _geom_angle_site_symmetry_1
 _geom_angle_site_symmetry_3
 _geom_angle_publ_flag
O4 Ni1 O3 82.06(12) . . ?
O4 Ni1 N1 97.45(14) . 1_556 ?
O3 Ni1 N1 90.40(15) . 1_556 ?
O4 Ni1 N3 89.83(14) . 8_455 ?
O3 Ni1 N3 170.79(14) . 8_455 ?
N1 Ni1 N3 94.99(14) 1_556 8_455 ?
O4 Ni1 O2 162.11(12) . . ?
O3 Ni1 O2 89.84(13) . . ?
N1 Ni1 O2 98.54(13) 1_556 . ?
N3 Ni1 O2 96.71(14) 8_455 . ?
O4 Ni1 O1 101.79(12) . . ?
O3 Ni1 O1 89.09(13) . . ?
N1 Ni1 O1 160.49(14) 1_556 . ?
N3 Ni1 O1 88.30(13) 8_455 . ?
O2 Ni1 O1 61.95(11) . . ?
O4 Ni1 C16 132.02(14) . . ?
O3 Ni1 C16 87.57(14) . . ?
N1 Ni1 C16 129.48(15) 1_556 . ?
N3 Ni1 C16 94.71(15) 8_455 . ?
O2 Ni1 C16 31.04(12) . . ?
O1 Ni1 C16 31.01(13) . . ?
C16 O1 Ni1 86.3(2) . . ?
C16 O2 Ni1 88.1(3) . . ?
C18 O3 Ni1 111.9(3) . . ?
C17 O4 Ni1 111.9(3) . . ?
C1 N1 C5 116.3(4) . . ?
C1 N1 Ni1 124.9(3) . 1_554 ?
C5 N1 Ni1 118.7(3) . 1_554 ?
C6 N2 C10 118.3(4) . . ?
C13 N3 C14 117.5(4) . . ?
C13 N3 Ni1 125.5(3) . 8 ?
C14 N3 Ni1 116.9(3) . 8 ?
N1 C1 C2 124.0(4) . . ?
N1 C1 H1 118.0 . . ?
C2 C1 H1 118.0 . . ?
C3 C2 C1 119.2(4) . . ?
C3 C2 H2 120.4 . . ?
C1 C2 H2 120.4 . . ?
C2 C3 C4 116.9(4) . . ?
C2 C3 C6 122.8(4) . . ?
C4 C3 C6 120.2(4) . . ?
C3 C4 C5 119.6(4) . . ?
C3 C4 H4 120.2 . . ?
C5 C4 H4 120.2 . . ?
N1 C5 C4 124.0(4) . . ?
N1 C5 H5 118.0 . . ?
C4 C5 H5 118.0 . . ?
N2 C6 C7 122.5(4) . . ?
N2 C6 C3 115.3(4) . . ?
C7 C6 C3 122.2(4) . . ?
C6 C7 C8 118.9(4) . . ?
C6 C7 H7 120.6 . . ?
C8 C7 H7 120.6 . . ?
C9 C8 C7 118.9(4) . . ?
C9 C8 C16 120.4(4) . . ?
C7 C8 C16 120.7(4) . . ?
C8 C9 C10 118.5(4) . . ?
C8 C9 H9 120.8 . . ?
C10 C9 H9 120.8 . . ?
N2 C10 C9 122.9(4) . . ?
N2 C10 C11 116.5(4) . . ?
C9 C10 C11 120.6(4) . . ?
C12 C11 C15 117.1(4) . . ?
C12 C11 C10 122.8(4) . . ?
C15 C11 C10 120.0(4) . . ?
C11 C12 C13 119.9(5) . . ?
C11 C12 H12 120.1 . . ?
C13 C12 H12 120.1 . . ?
N3 C13 C12 122.9(4) . . ?
N3 C13 H13 118.6 . . ?
C12 C13 H13 118.6 . . ?
N3 C14 C15 123.7(5) . . ?
N3 C14 H14 118.1 . . ?
C15 C14 H14 118.1 . . ?
C14 C15 C11 118.9(4) . . ?
C14 C15 H15 120.6 . . ?
C11 C15 H15 120.6 . . ?
O2 C16 O1 123.3(4) . . ?
O2 C16 C8 118.8(4) . . ?
O1 C16 C8 117.9(4) . . ?
O2 C16 Ni1 60.8(2) . . ?
O1 C16 Ni1 62.7(2) . . ?
C8 C16 Ni1 174.0(3) . . ?
O4 C17 O4 126.2(5) . 6 ?
O4 C17 C18 116.9(3) . . ?
O4 C17 C18 116.9(3) 6 . ?
O3 C18 O3 126.8(5) 6 . ?
O3 C18 C17 116.6(3) 6 . ?
O3 C18 C17 116.6(3) . . ?
 
_refine_diff_density_max    0.848
_refine_diff_density_min   -0.370
_refine_diff_density_rms    0.119


# start Validation Reply Form
_vrf_PLAT602_complex1-433K
;
PROBLEM: A VERY LARGE Solvent Accessible VOID(S) in Structure 
RESPONSE: There are one-dimension channels in this complex,
in which some disordered water molecules exist at the low temperature (100 K).
However, at high temperature (433 K) these disordered water molecules 
are removed completely.
Thus, there is a large solvent accessible void. 
; 
# end Validation Reply Form

#===END

#==========================================================================


data_complex1-433K-sq

_audit_creation_method            SHELXL-2013
_chemical_name_systematic
;
 ?
;
_chemical_name_common             ?
_chemical_melting_point           ?
_chemical_formula_moiety          'C34 H20 N6 Ni2 O8'
_chemical_formula_sum
 'C34 H20 N6 Ni2 O8' 
_chemical_formula_weight          757.98

loop_
 _atom_type_symbol
 _atom_type_description
 _atom_type_scat_dispersion_real
 _atom_type_scat_dispersion_imag
 _atom_type_scat_source
 'C'  'C'   0.0181   0.0091
 'International Tables Vol C Tables 4.2.6.8 and 6.1.1.4'
 'H'  'H'   0.0000   0.0000
 'International Tables Vol C Tables 4.2.6.8 and 6.1.1.4'
 'N'  'N'   0.0311   0.0180
 'International Tables Vol C Tables 4.2.6.8 and 6.1.1.4'
 'O'  'O'   0.0492   0.0322
 'International Tables Vol C Tables 4.2.6.8 and 6.1.1.4'
 'Ni'  'Ni'  -3.0029   0.5091
 'International Tables Vol C Tables 4.2.6.8 and 6.1.1.4'
 
_space_group_crystal_system       monoclinic
_space_group_IT_number            12
_space_group_name_H-M_alt         'C 2/m'
_space_group_name_Hall            '-C 2y'
 
_shelx_space_group_comment
;
The symmetry employed for this shelxl refinement is uniquely defined
by the following loop, which should always be used as a source of
symmetry information in preference to the above space-group names.
They are only intended as comments.
;
 
loop_
 _space_group_symop_operation_xyz
 'x, y, z'
 '-x, y, -z'
 'x+1/2, y+1/2, z'
 '-x+1/2, y+1/2, -z'
 '-x, -y, -z'
 'x, -y, z'
 '-x+1/2, -y+1/2, -z'
 'x+1/2, -y+1/2, z'
 
_cell_length_a                    19.513(3)
_cell_length_b                    22.317(3)
_cell_length_c                    11.6320(15)
_cell_angle_alpha                 90
_cell_angle_beta                  116.608(18)
_cell_angle_gamma                 90
_cell_volume                      4529.1(12)
_cell_formula_units_Z             4
_cell_measurement_temperature     433.00(10)
_cell_measurement_reflns_used     2870 
_cell_measurement_theta_min       3.9490 
_cell_measurement_theta_max       72.5880 
 
_exptl_crystal_description        prism 
_exptl_crystal_colour             green
_exptl_crystal_density_meas       ? 
_exptl_crystal_density_method     ?              
_exptl_crystal_density_diffrn     1.112          
_exptl_crystal_F_000              1544
_exptl_transmission_factor_min    ?                                             
_exptl_transmission_factor_max    ?                                             
_exptl_crystal_size_max           0.110
_exptl_crystal_size_mid           0.040
_exptl_crystal_size_min           0.030
_exptl_absorpt_coefficient_mu     1.418
_shelx_estimated_absorpt_T_min    0.895
_shelx_estimated_absorpt_T_max    0.959
_exptl_absorpt_correction_T_min                   0.87082
_exptl_absorpt_correction_T_max                   1.00000
_exptl_absorpt_correction_type            'multi-scan'
_exptl_absorpt_process_details
;
CrysAlisPro, Agilent Technologies,
Version 1.171.36.28 (release 01-02-2013 CrysAlis171 .NET)
(compiled Feb  1 2013,16:14:44)
Empirical absorption correction using spherical harmonics,
 implemented in SCALE3 ABSPACK scaling algorithm.
;
 
_exptl_special_details
;
 ?
;
 
_diffrn_ambient_temperature       433.00(10)
_diffrn_radiation_wavelength      1.54184
_diffrn_radiation_type            'Cu K\a'
_diffrn_source                    'SuperNova (Cu) X-ray Source'                       
_diffrn_measurement_device_type   'SuperNova, Dual, Cu at zero, Atlas' 
_diffrn_measurement_method        '\w scans'
_diffrn_detector_area_resol_mean  10.5594 
_diffrn_reflns_number             8588
_diffrn_reflns_av_unetI/netI      0.0299
_diffrn_reflns_av_R_equivalents   0.0244
_diffrn_reflns_limit_h_min        -22
_diffrn_reflns_limit_h_max        23
_diffrn_reflns_limit_k_min        -23
_diffrn_reflns_limit_k_max        27
_diffrn_reflns_limit_l_min        -14
_diffrn_reflns_limit_l_max        10
_diffrn_reflns_theta_min          4.251
_diffrn_reflns_theta_max          73.157
_diffrn_reflns_theta_full         67.684
_diffrn_measured_fraction_theta_max   0.949
_diffrn_measured_fraction_theta_full  0.984
_diffrn_reflns_Laue_measured_fraction_max    0.949
_diffrn_reflns_Laue_measured_fraction_full   0.984
_diffrn_reflns_point_group_measured_fraction_max   0.949
_diffrn_reflns_point_group_measured_fraction_full  0.984
_reflns_number_total              4436
_reflns_number_gt                 3537
_reflns_threshold_expression      'I > 2\s(I)'
_reflns_Friedel_coverage          0.000
_reflns_Friedel_fraction_max      .
_reflns_Friedel_fraction_full     .
 
_reflns_special_details
;
 Reflections were merged by SHELXL according to the crystal
 class for the calculation of statistics and refinement.
 
 _reflns_Friedel_fraction is defined as the number of unique
 Friedel pairs measured divided by the number that would be
 possible theoretically, ignoring centric projections and
 systematic absences.
;
 
_computing_data_collection
;
CrysAlisPro, Agilent Technologies,
Version 1.171.36.28 (release 01-02-2013 CrysAlis171 .NET)
(compiled Feb  1 2013,16:14:44)
;
_computing_cell_refinement
;
CrysAlisPro, Agilent Technologies,
Version 1.171.36.28 (release 01-02-2013 CrysAlis171 .NET)
(compiled Feb  1 2013,16:14:44)
;
_computing_data_reduction
;
CrysAlisPro, Agilent Technologies,
Version 1.171.36.28 (release 01-02-2013 CrysAlis171 .NET)
(compiled Feb  1 2013,16:14:44)
;
_computing_structure_solution     ?
_computing_structure_refinement   'SHELXL-2013 (Sheldrick, 2013)'
_computing_molecular_graphics     ?
_computing_publication_material   ?
 
_refine_special_details
;
 ?
;
_refine_ls_structure_factor_coef  Fsqd
_refine_ls_matrix_type            full
_refine_ls_weighting_scheme       calc
_refine_ls_weighting_details
;
 w=1/[\s^2^(Fo^2^)+(0.0964P)^2^+3.0453P]
 where P=(Fo^2^+2Fc^2^)/3
;
_atom_sites_solution_primary      ?
_atom_sites_solution_secondary    ?
_atom_sites_solution_hydrogens    geom
_refine_ls_hydrogen_treatment     constr
_refine_ls_extinction_method      none
_refine_ls_extinction_coef        .
_refine_ls_number_reflns          4436
_refine_ls_number_parameters      229
_refine_ls_number_restraints      0
_refine_ls_R_factor_all           0.0643
_refine_ls_R_factor_gt            0.0541
_refine_ls_wR_factor_ref          0.1703
_refine_ls_wR_factor_gt           0.1636
_refine_ls_goodness_of_fit_ref    1.053
_refine_ls_restrained_S_all       1.053
_refine_ls_shift/su_max           0.000
_refine_ls_shift/su_mean          0.000

loop_
  _platon_squeeze_void_nr
  _platon_squeeze_void_average_x
  _platon_squeeze_void_average_y
  _platon_squeeze_void_average_z
  _platon_squeeze_void_volume
  _platon_squeeze_void_count_electrons
  _platon_squeeze_void_content
   1 -0.035  0.000 -0.054       914        84 ' '
   2 -0.012  0.500 -0.054       914        84 ' '
_platon_squeeze_details                           
;
There are one-dimension channels in this complex,
in which some disordered water molecules exist at the low temperature 
(100 K).However, at high temperature (433 K) these disordered water 
molecules are removed completely.Thus, there is a large solvent 
accessible void. In order to compare this high temperature framework 
with that at 100 K using the 'SQUEEZE' instruction, 
we use the 'SQUEEZE' instruction again. 
; 
 
loop_
 _atom_site_label
 _atom_site_type_symbol
 _atom_site_fract_x
 _atom_site_fract_y
 _atom_site_fract_z
 _atom_site_U_iso_or_equiv
 _atom_site_adp_type
 _atom_site_occupancy
 _atom_site_site_symmetry_order  
 _atom_site_calc_flag
 _atom_site_refinement_flags_posn
 _atom_site_refinement_flags_adp
 _atom_site_refinement_flags_occupancy
 _atom_site_disorder_assembly
 _atom_site_disorder_group
Ni1 Ni 0.18806(3) 0.11843(2) 0.89204(4) 0.04807(19) Uani 1 1 d . . . . .
O1 O 0.18841(13) 0.12070(11) 0.7064(2) 0.0624(6) Uani 1 1 d . . . . .
O2 O 0.26797(14) 0.17531(11) 0.86915(19) 0.0629(6) Uani 1 1 d . . . . .
O3 O 0.26565(11) 0.04991(10) 0.9448(2) 0.0607(5) Uani 1 1 d . . . . .
O4 O 0.11438(11) 0.04991(10) 0.8697(2) 0.0596(5) Uani 1 1 d . . . . .
N1 N 0.21776(15) 0.13630(13) 0.0819(2) 0.0557(6) Uani 1 1 d . . . . .
N2 N 0.36043(16) 0.20716(14) 0.5351(2) 0.0617(7) Uani 1 1 d . . . . .
N3 N 0.59662(15) 0.32234(12) 0.8203(2) 0.0564(6) Uani 1 1 d . . . . .
C1 C 0.1760(2) 0.12399(18) 0.1395(3) 0.0699(10) Uani 1 1 d . . . . .
H1 H 0.1289 0.1055 0.0918 0.084 Uiso 1 1 calc R U . . .
C2 C 0.1973(2) 0.1368(2) 0.2690(3) 0.0798(12) Uani 1 1 d . . . . .
H2 H 0.1641 0.1282 0.3044 0.096 Uiso 1 1 calc R U . . .
C3 C 0.26682(18) 0.16174(15) 0.3423(3) 0.0570(7) Uani 1 1 d . . . . .
C4 C 0.3108(2) 0.1754(2) 0.2813(3) 0.0839(13) Uani 1 1 d . . . . .
H4 H 0.3579 0.1942 0.3261 0.101 Uiso 1 1 calc R U . . .
C5 C 0.2847(2) 0.1612(2) 0.1529(3) 0.0827(13) Uani 1 1 d . . . . .
H5 H 0.3164 0.1697 0.1145 0.099 Uiso 1 1 calc R U . . .
C6 C 0.29479(18) 0.17642(15) 0.4814(3) 0.0571(7) Uani 1 1 d . . . . .
C7 C 0.25599(19) 0.15805(16) 0.5503(3) 0.0586(8) Uani 1 1 d . . . . .
H7 H 0.2108 0.1362 0.5104 0.070 Uiso 1 1 calc R U . . .
C8 C 0.28574(18) 0.17278(15) 0.6798(3) 0.0560(7) Uani 1 1 d . . . . .
C9 C 0.3543(2) 0.20358(16) 0.7365(3) 0.0626(8) Uani 1 1 d . . . . .
H9 H 0.3762 0.2132 0.8234 0.075 Uiso 1 1 calc R U . . .
C10 C 0.3900(2) 0.21990(16) 0.6609(3) 0.0617(8) Uani 1 1 d . . . . .
C11 C 0.46258(19) 0.25387(16) 0.7162(3) 0.0616(8) Uani 1 1 d . . . . .
C12 C 0.5216(2) 0.24120(18) 0.8352(3) 0.0745(10) Uani 1 1 d . . . . .
H12 H 0.5170 0.2096 0.8835 0.089 Uiso 1 1 calc R U . . .
C13 C 0.5877(2) 0.27548(17) 0.8829(3) 0.0674(9) Uani 1 1 d . . . . .
H13 H 0.6276 0.2653 0.9621 0.081 Uiso 1 1 calc R U . . .
C14 C 0.5399(2) 0.33432(19) 0.7045(3) 0.0741(10) Uani 1 1 d . . . . .
H14 H 0.5456 0.3667 0.6593 0.089 Uiso 1 1 calc R U . . .
C15 C 0.4734(2) 0.30146(19) 0.6483(3) 0.0744(10) Uani 1 1 d . . . . .
H15 H 0.4361 0.3108 0.5661 0.089 Uiso 1 1 calc R U . . .
C16 C 0.24452(18) 0.15521(15) 0.7573(3) 0.0550(7) Uani 1 1 d . . . . .
C17 C 0.1463(2) 0.0000 0.8844(4) 0.0505(9) Uani 1 2 d S T P . .
C18 C 0.2340(2) 0.0000 0.9276(4) 0.0513(9) Uani 1 2 d S T P . .
 
loop_
 _atom_site_aniso_label
 _atom_site_aniso_U_11
 _atom_site_aniso_U_22
 _atom_site_aniso_U_33
 _atom_site_aniso_U_23
 _atom_site_aniso_U_13
 _atom_site_aniso_U_12
Ni1 0.0538(3) 0.0558(3) 0.0384(3) -0.00075(19) 0.0240(2) -0.0010(2)
O1 0.0670(13) 0.0745(15) 0.0525(12) -0.0096(10) 0.0327(11) -0.0140(11)
O2 0.0802(14) 0.0736(14) 0.0448(11) -0.0075(10) 0.0369(10) -0.0150(12)
O3 0.0469(10) 0.0615(13) 0.0717(14) -0.0010(11) 0.0248(10) -0.0044(9)
O4 0.0477(10) 0.0590(12) 0.0708(14) 0.0001(10) 0.0254(10) 0.0034(9)
N1 0.0620(14) 0.0701(16) 0.0375(12) -0.0027(11) 0.0245(11) -0.0037(12)
N2 0.0705(16) 0.0784(18) 0.0420(12) -0.0081(12) 0.0303(12) -0.0182(13)
N3 0.0621(14) 0.0661(16) 0.0430(12) -0.0027(11) 0.0252(11) -0.0067(12)
C1 0.070(2) 0.103(3) 0.0396(15) -0.0132(16) 0.0263(15) -0.0317(19)
C2 0.081(2) 0.121(3) 0.0515(18) -0.0204(19) 0.0418(18) -0.037(2)
C3 0.0659(18) 0.0693(19) 0.0389(14) -0.0040(13) 0.0262(13) -0.0087(15)
C4 0.081(2) 0.133(4) 0.0446(17) -0.020(2) 0.0344(17) -0.042(2)
C5 0.084(2) 0.130(4) 0.0455(17) -0.014(2) 0.0390(18) -0.039(2)
C6 0.0659(18) 0.0699(19) 0.0403(14) -0.0060(13) 0.0280(13) -0.0112(15)
C7 0.0637(17) 0.074(2) 0.0422(14) -0.0077(13) 0.0271(13) -0.0161(15)
C8 0.0674(18) 0.0658(19) 0.0420(14) -0.0033(13) 0.0311(14) -0.0087(14)
C9 0.075(2) 0.078(2) 0.0398(14) -0.0128(14) 0.0301(14) -0.0202(17)
C10 0.0704(19) 0.074(2) 0.0460(15) -0.0101(14) 0.0304(14) -0.0189(16)
C11 0.0677(19) 0.077(2) 0.0434(15) -0.0096(14) 0.0279(14) -0.0193(16)
C12 0.088(2) 0.076(2) 0.0560(19) 0.0054(16) 0.0292(17) -0.0230(19)
C13 0.074(2) 0.072(2) 0.0455(16) 0.0021(15) 0.0178(15) -0.0125(17)
C14 0.075(2) 0.091(3) 0.0515(18) 0.0133(17) 0.0239(16) -0.0178(19)
C15 0.076(2) 0.094(3) 0.0458(16) 0.0044(17) 0.0208(16) -0.024(2)
C16 0.0657(17) 0.0645(18) 0.0420(14) -0.0003(13) 0.0304(13) -0.0026(14)
C17 0.046(2) 0.062(3) 0.045(2) 0.000 0.0221(17) 0.000
C18 0.050(2) 0.062(3) 0.0411(19) 0.000 0.0197(17) 0.000
 
_geom_special_details
;
 All esds (except the esd in the dihedral angle between two l.s. planes)
 are estimated using the full covariance matrix.  The cell esds are taken
 into account individually in the estimation of esds in distances, angles
 and torsion angles; correlations between esds in cell parameters are only
 used when they are defined by crystal symmetry.  An approximate (isotropic)
 treatment of cell esds is used for estimating esds involving l.s. planes.
;
 
loop_
 _geom_bond_atom_site_label_1
 _geom_bond_atom_site_label_2
 _geom_bond_distance
 _geom_bond_site_symmetry_2
 _geom_bond_publ_flag
Ni1 O4 2.034(2) . ?
Ni1 O3 2.043(2) . ?
Ni1 N1 2.055(2) 1_556 ?
Ni1 N3 2.072(3) 8_455 ?
Ni1 O2 2.118(2) . ?
Ni1 O1 2.164(2) . ?
Ni1 C16 2.428(3) . ?
O1 C16 1.250(4) . ?
O2 C16 1.253(3) . ?
O3 C18 1.245(3) . ?
O4 C17 1.250(3) . ?
N1 C1 1.295(4) . ?
N1 C5 1.316(4) . ?
N1 Ni1 2.055(2) 1_554 ?
N2 C6 1.336(4) . ?
N2 C10 1.341(4) . ?
N3 C13 1.329(4) . ?
N3 C14 1.332(4) . ?
N3 Ni1 2.072(3) 8 ?
C1 C2 1.401(4) . ?
C1 H1 0.9300 . ?
C2 C3 1.358(5) . ?
C2 H2 0.9300 . ?
C3 C4 1.371(4) . ?
C3 C6 1.493(4) . ?
C4 C5 1.381(4) . ?
C4 H4 0.9300 . ?
C5 H5 0.9300 . ?
C6 C7 1.389(4) . ?
C7 C8 1.389(4) . ?
C7 H7 0.9300 . ?
C8 C9 1.381(4) . ?
C8 C16 1.504(4) . ?
C9 C10 1.393(4) . ?
C9 H9 0.9300 . ?
C10 C11 1.476(4) . ?
C11 C12 1.376(5) . ?
C11 C15 1.394(5) . ?
C12 C13 1.384(5) . ?
C12 H12 0.9300 . ?
C13 H13 0.9300 . ?
C14 C15 1.374(5) . ?
C14 H14 0.9300 . ?
C15 H15 0.9300 . ?
C17 O4 1.250(3) 6 ?
C17 C18 1.553(5) . ?
C18 O3 1.245(3) 6 ?
 
loop_
 _geom_angle_atom_site_label_1
 _geom_angle_atom_site_label_2
 _geom_angle_atom_site_label_3
 _geom_angle
 _geom_angle_site_symmetry_1
 _geom_angle_site_symmetry_3
 _geom_angle_publ_flag
O4 Ni1 O3 82.07(9) . . ?
O4 Ni1 N1 97.25(10) . 1_556 ?
O3 Ni1 N1 90.46(10) . 1_556 ?
O4 Ni1 N3 89.79(10) . 8_455 ?
O3 Ni1 N3 170.73(10) . 8_455 ?
N1 Ni1 N3 94.97(10) 1_556 8_455 ?
O4 Ni1 O2 162.26(9) . . ?
O3 Ni1 O2 89.88(9) . . ?
N1 Ni1 O2 98.60(9) 1_556 . ?
N3 Ni1 O2 96.70(10) 8_455 . ?
O4 Ni1 O1 102.01(9) . . ?
O3 Ni1 O1 89.09(9) . . ?
N1 Ni1 O1 160.48(10) 1_556 . ?
N3 Ni1 O1 88.29(9) 8_455 . ?
O2 Ni1 O1 61.88(8) . . ?
O4 Ni1 C16 132.13(10) . . ?
O3 Ni1 C16 87.55(10) . . ?
N1 Ni1 C16 129.57(11) 1_556 . ?
N3 Ni1 C16 94.72(11) 8_455 . ?
O2 Ni1 C16 31.07(9) . . ?
O1 Ni1 C16 30.91(9) . . ?
C16 O1 Ni1 86.30(17) . . ?
C16 O2 Ni1 88.24(18) . . ?
C18 O3 Ni1 112.0(2) . . ?
C17 O4 Ni1 111.8(2) . . ?
C1 N1 C5 116.3(3) . . ?
C1 N1 Ni1 125.1(2) . 1_554 ?
C5 N1 Ni1 118.7(2) . 1_554 ?
C6 N2 C10 118.3(3) . . ?
C13 N3 C14 117.2(3) . . ?
C13 N3 Ni1 125.6(2) . 8 ?
C14 N3 Ni1 117.1(2) . 8 ?
N1 C1 C2 124.1(3) . . ?
N1 C1 H1 117.9 . . ?
C2 C1 H1 117.9 . . ?
C3 C2 C1 119.4(3) . . ?
C3 C2 H2 120.3 . . ?
C1 C2 H2 120.3 . . ?
C2 C3 C4 116.6(3) . . ?
C2 C3 C6 123.2(3) . . ?
C4 C3 C6 120.2(3) . . ?
C3 C4 C5 119.7(3) . . ?
C3 C4 H4 120.1 . . ?
C5 C4 H4 120.1 . . ?
N1 C5 C4 123.8(3) . . ?
N1 C5 H5 118.1 . . ?
C4 C5 H5 118.1 . . ?
N2 C6 C7 122.5(3) . . ?
N2 C6 C3 115.4(3) . . ?
C7 C6 C3 122.1(3) . . ?
C6 C7 C8 119.0(3) . . ?
C6 C7 H7 120.5 . . ?
C8 C7 H7 120.5 . . ?
C9 C8 C7 118.7(3) . . ?
C9 C8 C16 120.5(3) . . ?
C7 C8 C16 120.8(3) . . ?
C8 C9 C10 118.7(3) . . ?
C8 C9 H9 120.6 . . ?
C10 C9 H9 120.6 . . ?
N2 C10 C9 122.7(3) . . ?
N2 C10 C11 116.4(3) . . ?
C9 C10 C11 120.9(3) . . ?
C12 C11 C15 117.1(3) . . ?
C12 C11 C10 122.7(3) . . ?
C15 C11 C10 120.3(3) . . ?
C11 C12 C13 119.9(3) . . ?
C11 C12 H12 120.0 . . ?
C13 C12 H12 120.0 . . ?
N3 C13 C12 122.9(3) . . ?
N3 C13 H13 118.6 . . ?
C12 C13 H13 118.6 . . ?
N3 C14 C15 123.6(3) . . ?
N3 C14 H14 118.2 . . ?
C15 C14 H14 118.2 . . ?
C14 C15 C11 119.2(3) . . ?
C14 C15 H15 120.4 . . ?
C11 C15 H15 120.4 . . ?
O1 C16 O2 123.2(3) . . ?
O1 C16 C8 117.8(3) . . ?
O2 C16 C8 119.0(3) . . ?
O1 C16 Ni1 62.79(16) . . ?
O2 C16 Ni1 60.69(15) . . ?
C8 C16 Ni1 173.9(2) . . ?
O4 C17 O4 126.0(4) . 6 ?
O4 C17 C18 116.98(18) . . ?
O4 C17 C18 116.98(18) 6 . ?
O3 C18 O3 126.9(4) 6 . ?
O3 C18 C17 116.55(19) 6 . ?
O3 C18 C17 116.55(19) . . ?
 
_refine_diff_density_max    0.823
_refine_diff_density_min   -0.273
_refine_diff_density_rms    0.066


