data_5
_audit_block_doi                 10.5517/cc8kzlc
_database_code_depnum_ccdc_archive 'CCDC 255613'
loop_
_citation_id
_citation_doi
_citation_year
1 10.1002/chem.200401201 2005
_audit_update_record             
;
2004-11-12 deposited with the CCDC.	2021-11-24 downloaded from the CCDC.
;

_audit_creation_method           SHELXL-97
_chemical_name_systematic        
;
?
;
_chemical_name_common            '[Zn2(tfbdc)2(dabco)]'
_chemical_melting_point          ?
_chemical_formula_moiety         ?
_chemical_formula_sum            'C22 H12 F8 N2 O8 Zn2'
_chemical_formula_weight         715.08

loop_
_atom_type_symbol
_atom_type_description
_atom_type_scat_dispersion_real
_atom_type_scat_dispersion_imag
_atom_type_scat_source
C C 0.0033 0.0016 'International Tables Vol C Tables 4.2.6.8 and 6.1.1.4'
H H 0.0000 0.0000 'International Tables Vol C Tables 4.2.6.8 and 6.1.1.4'
N N 0.0061 0.0033 'International Tables Vol C Tables 4.2.6.8 and 6.1.1.4'
O O 0.0106 0.0060 'International Tables Vol C Tables 4.2.6.8 and 6.1.1.4'
F F 0.0171 0.0103 'International Tables Vol C Tables 4.2.6.8 and 6.1.1.4'
Zn Zn 0.2839 1.4301 'International Tables Vol C Tables 4.2.6.8 and 6.1.1.4'

_symmetry_cell_setting           tetragonal
_symmetry_space_group_name_H-M   P4/nbm

loop_
_symmetry_equiv_pos_as_xyz
'x, y, z'
'-x+1/2, -y+1/2, z'
'-y+1/2, x, z'
'y, -x+1/2, z'
'-x+1/2, y, -z'
'x, -y+1/2, -z'
'y, x, -z'
'-y+1/2, -x+1/2, -z'
'-x, -y, -z'
'x-1/2, y-1/2, -z'
'y-1/2, -x, -z'
'-y, x-1/2, -z'
'x-1/2, -y, z'
'-x, y-1/2, z'
'-y, -x, z'
'y-1/2, x-1/2, z'

_cell_length_a                   15.4508(7)
_cell_length_b                   15.4508(7)
_cell_length_c                   9.6198(6)
_cell_angle_alpha                90.00
_cell_angle_beta                 90.00
_cell_angle_gamma                90.00
_cell_volume                     2296.5(2)
_cell_formula_units_Z            2
_cell_measurement_temperature    223(2)
_cell_measurement_reflns_used    ?
_cell_measurement_theta_min      ?
_cell_measurement_theta_max      ?

_exptl_crystal_description       block
_exptl_crystal_colour            colorless
_exptl_crystal_size_max          0.45
_exptl_crystal_size_mid          0.45
_exptl_crystal_size_min          0.25
_exptl_crystal_density_meas      ?
_exptl_crystal_density_diffrn    1.034
_exptl_crystal_density_method    'not measured'
_exptl_crystal_F_000             708
_exptl_absorpt_coefficient_mu    1.105
_exptl_absorpt_correction_type   semi-empirical
_exptl_absorpt_correction_T_min  0.6361
_exptl_absorpt_correction_T_max  0.7696
_exptl_absorpt_process_details   'Bruker SADABS'

_exptl_special_details           
;
?
;

_diffrn_ambient_temperature      223(2)
_diffrn_radiation_wavelength     0.71073
_diffrn_radiation_type           MoK\a
_diffrn_radiation_source         'fine-focus sealed tube'
_diffrn_radiation_monochromator  graphite
_diffrn_measurement_device_type  'SMART CCD'
_diffrn_measurement_method       'omega scan'
_diffrn_detector_area_resol_mean ?
_diffrn_standards_number         ?
_diffrn_standards_interval_count ?
_diffrn_standards_interval_time  ?
_diffrn_standards_decay_%        ?
_diffrn_reflns_number            11379
_diffrn_reflns_av_R_equivalents  0.0433
_diffrn_reflns_av_sigmaI/netI    0.0263
_diffrn_reflns_limit_h_min       -19
_diffrn_reflns_limit_h_max       19
_diffrn_reflns_limit_k_min       -15
_diffrn_reflns_limit_k_max       19
_diffrn_reflns_limit_l_min       -8
_diffrn_reflns_limit_l_max       12
_diffrn_reflns_theta_min         2.12
_diffrn_reflns_theta_max         26.38
_reflns_number_total             1249
_reflns_number_gt                994
_reflns_threshold_expression     >2sigma(I)

_computing_data_collection       'Bruker SMART'
_computing_cell_refinement       'Bruker SAINT'
_computing_data_reduction        'Bruker SAINT'
_computing_structure_solution    'SHELXS-97 (Sheldrick, 1990)'
_computing_structure_refinement  'SHELXL-97 (Sheldrick, 1997)'
_computing_molecular_graphics    DIAMOND
_computing_publication_material  WORD

_refine_special_details          
;
Refinement of F^2^ against ALL reflections. The weighted R-factor wR and
goodness of fit S are based on F^2^, conventional R-factors R are based
on F, with F set to zero for negative F^2^. The threshold expression of
F^2^ > 2sigma(F^2^) is used only for calculating R-factors(gt) etc. and is
not relevant to the choice of reflections for refinement. R-factors based
on F^2^ are statistically about twice as large as those based on F, and R-
factors based on ALL data will be even larger.
;

_refine_ls_structure_factor_coef Fsqd
_refine_ls_matrix_type           full
_refine_ls_weighting_scheme      calc
_refine_ls_weighting_details     
'calc w=1/[\s^2^(Fo^2^)+(0.0602P)^2^+1.7888P] where P=(Fo^2^+2Fc^2^)/3'
_atom_sites_solution_primary     direct
_atom_sites_solution_secondary   difmap
_atom_sites_solution_hydrogens   geom
_refine_ls_hydrogen_treatment    mixed
_refine_ls_extinction_method     none
_refine_ls_extinction_coef       ?
_refine_ls_number_reflns         1249
_refine_ls_number_parameters     80
_refine_ls_number_restraints     24
_refine_ls_R_factor_all          0.0478
_refine_ls_R_factor_gt           0.0364
_refine_ls_wR_factor_ref         0.1085
_refine_ls_wR_factor_gt          0.0963
_refine_ls_goodness_of_fit_ref   1.094
_refine_ls_restrained_S_all      1.084
_refine_ls_shift/su_max          0.000
_refine_ls_shift/su_mean         0.000

loop_
_atom_site_label
_atom_site_type_symbol
_atom_site_fract_x
_atom_site_fract_y
_atom_site_fract_z
_atom_site_U_iso_or_equiv
_atom_site_adp_type
_atom_site_occupancy
_atom_site_symmetry_multiplicity
_atom_site_calc_flag
_atom_site_refinement_flags
_atom_site_disorder_assembly
_atom_site_disorder_group
Zn1 Zn 0.2500 0.2500 0.34663(4) 0.0172(2) Uani 1 4 d S . .
F1 F 0.11397(14) 0.49295(15) 0.7121(2) 0.0854(9) Uani 1 1 d . . .
O1 O 0.17296(11) 0.35399(11) 0.38743(17) 0.0306(4) Uani 1 1 d . . .
N1 N 0.2500 0.2500 0.1334(4) 0.0203(8) Uani 1 4 d S . .
C1 C 0.13407(14) 0.36593(14) 0.5000 0.0260(7) Uani 1 2 d S . .
C2 C 0.06487(15) 0.43513(15) 0.5000 0.0293(7) Uani 1 2 d S . .
C3 C 0.0576(2) 0.4947(2) 0.6065(3) 0.0461(7) Uani 1 1 d . . .
C1N C 0.1607(12) 0.264(5) 0.0804(13) 0.023(4) Uani 0.24 1 d PU . 1
C1N' C 0.231(5) 0.341(3) 0.077(4) 0.021(4) Uani 0.14 1 d PU . 2
C2N C 0.329(4) 0.293(4) 0.079(2) 0.020(4) Uani 0.18 1 d PU . 1
C2N' C 0.303(4) 0.323(3) 0.0817(18) 0.017(4) Uani 0.20 1 d PU . 2
H1N H 0.3496 0.3284 0.1168 0.050 Uiso 0.50 1 d P A 2
H2N H 0.2365 0.3796 0.1221 0.050 Uiso 0.50 1 d P B 2
H3N H 0.1269 0.2878 0.1217 0.050 Uiso 0.50 1 d P C 2

loop_
_atom_site_aniso_label
_atom_site_aniso_U_11
_atom_site_aniso_U_22
_atom_site_aniso_U_33
_atom_site_aniso_U_23
_atom_site_aniso_U_13
_atom_site_aniso_U_12
Zn1 0.0211(2) 0.0211(2) 0.0095(3) 0.000 0.000 0.000
F1 0.0962(16) 0.0979(16) 0.0620(12) -0.0423(12) -0.0527(12) 0.0636(13)
O1 0.0381(9) 0.0313(9) 0.0225(8) 0.0015(7) 0.0045(7) 0.0130(7)
N1 0.0247(12) 0.0247(12) 0.0113(15) 0.000 0.000 0.000
C1 0.0276(10) 0.0276(10) 0.0229(15) -0.0017(10) -0.0017(10) 0.0104(12)
C2 0.0332(11) 0.0332(11) 0.0214(15) -0.0002(10) -0.0002(10) 0.0144(14)
C3 0.0522(17) 0.0540(17) 0.0322(13) -0.0107(14) -0.0169(13) 0.0232(14)
C1N 0.023(5) 0.034(9) 0.013(5) -0.004(8) 0.002(4) 0.001(7)
C1N' 0.019(8) 0.032(9) 0.014(5) 0.000(6) 0.002(7) -0.002(6)
C2N 0.019(9) 0.030(10) 0.012(5) -0.001(8) 0.003(8) -0.002(8)
C2N' 0.015(9) 0.028(10) 0.008(5) 0.001(6) 0.002(6) -0.001(6)

_geom_special_details            
;
All esds (except the esd in the dihedral angle between two l.s. planes)
are estimated using the full covariance matrix. The cell esds are taken
into account individually in the estimation of esds in distances, angles
and torsion angles; correlations between esds in cell parameters are only
used when they are defined by crystal symmetry. An approximate (isotropic)
treatment of cell esds is used for estimating esds involving l.s. planes.
;

loop_
_geom_bond_atom_site_label_1
_geom_bond_atom_site_label_2
_geom_bond_distance
_geom_bond_site_symmetry_2
_geom_bond_publ_flag
Zn1 O1 2.0377(16) 3 ?
Zn1 O1 2.0377(16) . ?
Zn1 O1 2.0377(16) 4 ?
Zn1 O1 2.0377(16) 2 ?
Zn1 N1 2.051(4) . ?
Zn1 Zn1 2.9507(9) 5_556 ?
F1 C3 1.338(3) . ?
O1 C1 1.252(2) . ?
N1 C2N' 1.48(2) 2 ?
N1 C2N' 1.48(2) 3 ?
N1 C2N' 1.48(2) . ?
N1 C2N' 1.48(2) 4 ?
N1 C2N 1.49(3) 2 ?
N1 C2N 1.49(3) 3 ?
N1 C2N 1.49(3) . ?
N1 C2N 1.49(3) 4 ?
N1 C1N 1.487(15) 3 ?
N1 C1N 1.487(15) . ?
N1 C1N 1.487(15) 4 ?
N1 C1N 1.487(15) 2 ?
C1 O1 1.252(2) 8_556 ?
C1 C2 1.512(4) . ?
C2 C3 1.382(3) 8_556 ?
C2 C3 1.382(3) . ?
C3 C3 1.375(5) 16_565 ?
C1N C2N 0.90(2) 2 ?
C1N C2N 1.23(3) 3 ?
C1N C1N 1.61(4) 6 ?
C1N C2N 1.61(5) 5 ?
C1N C1N 1.98(2) 4 ?
C1N C1N 1.98(2) 3 ?
C1N' C2N' 1.03(4) 3 ?
C1N' C2N' 1.15(3) . ?
C1N' C1N' 1.60(9) 5 ?
C1N' C2N' 1.64(7) 5 ?
C1N' C1N' 2.04(7) 3 ?
C1N' C1N' 2.04(7) 4 ?
C2N C1N 0.90(2) 2 ?
C2N C1N 1.23(3) 4 ?
C2N C1N 1.61(5) 5 ?
C2N C2N 1.72(8) 7 ?
C2N C2N 1.97(5) 3 ?
C2N C2N 1.97(5) 4 ?
C2N' C1N' 1.03(4) 4 ?
C2N' C1N' 1.64(7) 5 ?
C2N' C2N' 1.63(5) 7 ?
C2N' C2N' 1.97(3) 3 ?
C2N' C2N' 1.97(3) 4 ?

loop_
_geom_angle_atom_site_label_1
_geom_angle_atom_site_label_2
_geom_angle_atom_site_label_3
_geom_angle
_geom_angle_site_symmetry_1
_geom_angle_site_symmetry_3
_geom_angle_publ_flag
O1 Zn1 O1 87.875(19) 3 . ?
O1 Zn1 O1 157.79(10) 3 4 ?
O1 Zn1 O1 87.875(19) . 4 ?
O1 Zn1 O1 87.875(19) 3 2 ?
O1 Zn1 O1 157.79(10) . 2 ?
O1 Zn1 O1 87.875(19) 4 2 ?
O1 Zn1 N1 101.10(5) 3 . ?
O1 Zn1 N1 101.10(5) . . ?
O1 Zn1 N1 101.10(5) 4 . ?
O1 Zn1 N1 101.10(5) 2 . ?
O1 Zn1 Zn1 78.90(5) 3 5_556 ?
O1 Zn1 Zn1 78.90(5) . 5_556 ?
O1 Zn1 Zn1 78.90(5) 4 5_556 ?
O1 Zn1 Zn1 78.90(5) 2 5_556 ?
N1 Zn1 Zn1 180.0 . 5_556 ?
C1 O1 Zn1 124.27(16) . . ?
C2N' N1 C2N' 83.5(5) 2 3 ?
C2N' N1 C2N' 140.6(14) 2 . ?
C2N' N1 C2N' 83.5(5) 3 . ?
C2N' N1 C2N' 83.5(5) 2 4 ?
C2N' N1 C2N' 140.6(14) 3 4 ?
C2N' N1 C2N' 83.5(5) . 4 ?
C2N' N1 C2N 24.1(7) 2 2 ?
C2N' N1 C2N 60.0(7) 3 2 ?
C2N' N1 C2N 132.6(9) . 2 ?
C2N' N1 C2N 105.3(8) 4 2 ?
C2N' N1 C2N 105.3(8) 2 3 ?
C2N' N1 C2N 24.1(7) 3 3 ?
C2N' N1 C2N 60.0(7) . 3 ?
C2N' N1 C2N 132.6(9) 4 3 ?
C2N N1 C2N 82.9(6) 2 3 ?
C2N' N1 C2N 132.6(9) 2 . ?
C2N' N1 C2N 105.3(8) 3 . ?
C2N' N1 C2N 24.1(7) . . ?
C2N' N1 C2N 60.0(7) 4 . ?
C2N N1 C2N 139.0(18) 2 . ?
C2N N1 C2N 82.9(6) 3 . ?
C2N' N1 C2N 60.0(7) 2 4 ?
C2N' N1 C2N 132.6(9) 3 4 ?
C2N' N1 C2N 105.3(8) . 4 ?
C2N' N1 C2N 24.1(7) 4 4 ?
C2N N1 C2N 82.9(6) 2 4 ?
C2N N1 C2N 139.0(18) 3 4 ?
C2N N1 C2N 82.9(6) . 4 ?
C2N' N1 C1N 25.1(5) 2 3 ?
C2N' N1 C1N 106.4(6) 3 3 ?
C2N' N1 C1N 132.4(8) . 3 ?
C2N' N1 C1N 59.1(5) 4 3 ?
C2N N1 C1N 49.0(9) 2 3 ?
C2N N1 C1N 125.3(10) 3 3 ?
C2N N1 C1N 114.6(9) . 3 ?
C2N N1 C1N 35.1(9) 4 3 ?
C2N' N1 C1N 59.1(5) 2 . ?
C2N' N1 C1N 25.1(5) 3 . ?
C2N' N1 C1N 106.4(6) . . ?
C2N' N1 C1N 132.4(8) 4 . ?
C2N N1 C1N 35.1(9) 2 . ?
C2N N1 C1N 49.0(9) 3 . ?
C2N N1 C1N 125.3(10) . . ?
C2N N1 C1N 114.6(9) 4 . ?
C1N N1 C1N 83.2(3) 3 . ?
C2N' N1 C1N 132.4(8) 2 4 ?
C2N' N1 C1N 59.1(5) 3 4 ?
C2N' N1 C1N 25.1(5) . 4 ?
C2N' N1 C1N 106.4(6) 4 4 ?
C2N N1 C1N 114.6(9) 2 4 ?
C2N N1 C1N 35.1(9) 3 4 ?
C2N N1 C1N 49.0(9) . 4 ?
C2N N1 C1N 125.3(10) 4 4 ?
C1N N1 C1N 139.9(10) 3 4 ?
C1N N1 C1N 83.2(3) . 4 ?
C2N' N1 C1N 106.4(6) 2 2 ?
C2N' N1 C1N 132.4(8) 3 2 ?
C2N' N1 C1N 59.1(5) . 2 ?
C2N' N1 C1N 25.1(5) 4 2 ?
C2N N1 C1N 125.3(10) 2 2 ?
C2N N1 C1N 114.6(9) 3 2 ?
C2N N1 C1N 35.1(9) . 2 ?
C2N N1 C1N 49.0(9) 4 2 ?
C1N N1 C1N 83.2(3) 3 2 ?
C1N N1 C1N 139.9(10) . 2 ?
C1N N1 C1N 83.2(3) 4 2 ?
O1 C1 O1 127.3(3) . 8_556 ?
O1 C1 C2 116.33(15) . . ?
O1 C1 C2 116.33(15) 8_556 . ?
C3 C2 C3 116.2(3) 8_556 . ?
C3 C2 C1 121.88(16) 8_556 . ?
C3 C2 C1 121.88(16) . . ?
F1 C3 C3 118.32(14) . 16_565 ?
F1 C3 C2 119.8(2) . . ?
C3 C3 C2 121.88(16) 16_565 . ?
C2N C1N C2N 135(4) 2 3 ?
C2N C1N N1 72(2) 2 . ?
C2N C1N N1 65.5(15) 3 . ?
C2N C1N C1N 74(5) 2 6 ?
C2N C1N C1N 102(4) 3 6 ?
N1 C1N C1N 106.9(19) . 6 ?
C2N C1N C2N 104(4) 2 5 ?
C2N C1N C2N 73(5) 3 5 ?
N1 C1N C2N 106(3) . 5 ?
C1N C1N C2N 32.4(10) 6 5 ?
C2N C1N C1N 116(2) 2 4 ?
C2N C1N C1N 18.6(15) 3 4 ?
N1 C1N C1N 48.38(17) . 4 ?
C1N C1N C1N 99(2) 6 4 ?
C2N C1N C1N 76(5) 5 4 ?
C2N C1N C1N 26(2) 2 3 ?
C2N C1N C1N 108.6(15) 3 3 ?
N1 C1N C1N 48.38(17) . 3 ?
C1N C1N C1N 77(4) 6 3 ?
C2N C1N C1N 99.7(16) 5 3 ?
C1N C1N C1N 90.000(4) 4 3 ?
C2N' C1N' C2N' 130(5) 3 . ?
C2N' C1N' C1N' 110(5) 3 5 ?
C2N' C1N' C1N' 71(5) . 5 ?
C2N' C1N' N1 67(3) 3 . ?
C2N' C1N' N1 65(2) . . ?
C1N' C1N' N1 105(3) 5 . ?
C2N' C1N' C2N' 72(5) 3 5 ?
C2N' C1N' C2N' 107(4) . 5 ?
C1N' C1N' C2N' 41.5(18) 5 5 ?
N1 C1N' C2N' 103(3) . 5 ?
C2N' C1N' C1N' 21(3) 3 3 ?
C2N' C1N' C1N' 109(2) . 3 ?
C1N' C1N' C1N' 101.8(18) 5 3 ?
N1 C1N' C1N' 48.5(5) . 3 ?
C2N' C1N' C1N' 72(4) 5 3 ?
C2N' C1N' C1N' 111(3) 3 4 ?
C2N' C1N' C1N' 19(2) . 4 ?
C1N' C1N' C1N' 72(5) 5 4 ?
N1 C1N' C1N' 48.5(5) . 4 ?
C2N' C1N' C1N' 100(2) 5 4 ?
C1N' C1N' C1N' 90.000(4) 3 4 ?
C1N C2N C1N 135(4) 2 4 ?
C1N C2N N1 72(2) 2 . ?
C1N C2N N1 65.5(15) 4 . ?
C1N C2N C1N 74(5) 2 5 ?
C1N C2N C1N 105(4) 4 5 ?
N1 C2N C1N 106.8(19) . 5 ?
C1N C2N C2N 113(3) 2 7 ?
C1N C2N C2N 64(5) 4 7 ?
N1 C2N C2N 101(4) . 7 ?
C1N C2N C2N 43.4(11) 5 7 ?
C1N C2N C2N 116(2) 2 3 ?
C1N C2N C2N 19.0(15) 4 3 ?
N1 C2N C2N 48.5(3) . 3 ?
C1N C2N C2N 100(3) 5 3 ?
C2N C2N C2N 66(5) 7 3 ?
C1N C2N C2N 27(2) 2 4 ?
C1N C2N C2N 109.0(15) 4 4 ?
N1 C2N C2N 48.5(3) . 4 ?
C1N C2N C2N 76(4) 5 4 ?
C2N C2N C2N 102.7(9) 7 4 ?
C2N C2N C2N 90.000(2) 3 4 ?
C1N' C2N' C1N' 140(5) 4 . ?
C1N' C2N' N1 73(2) 4 . ?
C1N' C2N' N1 71(2) . . ?
C1N' C2N' C1N' 107(5) 4 5 ?
C1N' C2N' C1N' 68(5) . 5 ?
N1 C2N' C1N' 106(3) . 5 ?
C1N' C2N' C2N' 72(6) 4 7 ?
C1N' C2N' C2N' 102(4) . 7 ?
N1 C2N' C2N' 106(2) . 7 ?
C1N' C2N' C2N' 36.6(15) 5 7 ?
C1N' C2N' C2N' 116(2) 4 3 ?
C1N' C2N' C2N' 24(2) . 3 ?
N1 C2N' C2N' 48.3(2) . 3 ?
C1N' C2N' C2N' 74(4) 5 3 ?
C2N' C2N' C2N' 99(2) 7 3 ?
C1N' C2N' C2N' 27(2) 4 4 ?
C1N' C2N' C2N' 114(2) . 4 ?
N1 C2N' C2N' 48.3(2) . 4 ?
C1N' C2N' C2N' 103(2) 5 4 ?
C2N' C2N' C2N' 77(5) 7 4 ?
C2N' C2N' C2N' 90.000(3) 3 4 ?

_diffrn_measured_fraction_theta_max 0.998
_diffrn_reflns_theta_full        26.38
_diffrn_measured_fraction_theta_full 0.998
_refine_diff_density_max         0.656
_refine_diff_density_min         -0.771
_refine_diff_density_rms         0.079
####################################################################### 
# 
# This file contains crystal structure data downloaded from the 
# Cambridge Structural Database (CSD) hosted by the Cambridge 
# Crystallographic Data Centre (CCDC).
# 
# Full information about CCDC data access policies and citation 
# guidelines are available at http://www.ccdc.cam.ac.uk/access/V1 
# 
# Audit and citation data items may have been added by the CCDC. 
# Please retain this information to preserve the provenance of 
# this file and to allow appropriate attribution of the data. 
# 
