data_8
_audit_block_doi                 10.5517/cc8kzpg
_database_code_depnum_ccdc_archive 'CCDC 255616'
loop_
_citation_id
_citation_doi
_citation_year
1 10.1002/chem.200401201 2005
_audit_update_record             
;
2004-11-12 deposited with the CCDC.	2021-11-24 downloaded from the CCDC.
;

_audit_creation_method           SHELXL-97
_chemical_name_systematic        
;
?
;
_chemical_name_common            '[Zn2(tmbdc)2(bpy)]'
_chemical_melting_point          ?
_chemical_formula_moiety         ?
_chemical_formula_sum            'C34 H32 N2 O8 Zn2'
_chemical_formula_weight         727.36

loop_
_atom_type_symbol
_atom_type_description
_atom_type_scat_dispersion_real
_atom_type_scat_dispersion_imag
_atom_type_scat_source
C C 0.0033 0.0016 'International Tables Vol C Tables 4.2.6.8 and 6.1.1.4'
H H 0.0000 0.0000 'International Tables Vol C Tables 4.2.6.8 and 6.1.1.4'
N N 0.0061 0.0033 'International Tables Vol C Tables 4.2.6.8 and 6.1.1.4'
O O 0.0106 0.0060 'International Tables Vol C Tables 4.2.6.8 and 6.1.1.4'
Zn Zn 0.2839 1.4301 'International Tables Vol C Tables 4.2.6.8 and 6.1.1.4'

_symmetry_cell_setting           tetragonal
_symmetry_space_group_name_H-M   P4/mmm

loop_
_symmetry_equiv_pos_as_xyz
'x, y, z'
'-x, -y, z'
'-y, x, z'
'y, -x, z'
'-x, y, -z'
'x, -y, -z'
'y, x, -z'
'-y, -x, -z'
'-x, -y, -z'
'x, y, -z'
'y, -x, -z'
'-y, x, -z'
'x, -y, z'
'-x, y, z'
'-y, -x, z'
'y, x, z'

_cell_length_a                   10.8773(14)
_cell_length_b                   10.8773(14)
_cell_length_c                   13.964(3)
_cell_angle_alpha                90.00
_cell_angle_beta                 90.00
_cell_angle_gamma                90.00
_cell_volume                     1652.1(4)
_cell_formula_units_Z            1
_cell_measurement_temperature    223(2)
_cell_measurement_reflns_used    ?
_cell_measurement_theta_min      ?
_cell_measurement_theta_max      ?

_exptl_crystal_description       ?
_exptl_crystal_colour            ?
_exptl_crystal_size_max          0.27
_exptl_crystal_size_mid          0.20
_exptl_crystal_size_min          0.20
_exptl_crystal_density_meas      ?
_exptl_crystal_density_diffrn    0.731
_exptl_crystal_density_method    'not measured'
_exptl_crystal_F_000             374
_exptl_absorpt_coefficient_mu    0.752
_exptl_absorpt_correction_type   semi-empirical
_exptl_absorpt_correction_T_min  0.8227
_exptl_absorpt_correction_T_max  0.8641
_exptl_absorpt_process_details   'Bruker SADABS'

_exptl_special_details           
;
?
;

_diffrn_ambient_temperature      223(2)
_diffrn_radiation_wavelength     0.71073
_diffrn_radiation_type           MoK\a
_diffrn_radiation_source         'fine-focus sealed tube'
_diffrn_radiation_monochromator  graphite
_diffrn_measurement_device_type  'SMART CCD'
_diffrn_measurement_method       'omega scan'
_diffrn_detector_area_resol_mean ?
_diffrn_standards_number         ?
_diffrn_standards_interval_count ?
_diffrn_standards_interval_time  ?
_diffrn_standards_decay_%        ?
_diffrn_reflns_number            7819
_diffrn_reflns_av_R_equivalents  0.0789
_diffrn_reflns_av_sigmaI/netI    0.0438
_diffrn_reflns_limit_h_min       -12
_diffrn_reflns_limit_h_max       12
_diffrn_reflns_limit_k_min       -12
_diffrn_reflns_limit_k_max       12
_diffrn_reflns_limit_l_min       -16
_diffrn_reflns_limit_l_max       12
_diffrn_reflns_theta_min         1.87
_diffrn_reflns_theta_max         24.72
_reflns_number_total             888
_reflns_number_gt                781
_reflns_threshold_expression     >2sigma(I)

_computing_data_collection       'Bruker SMART'
_computing_cell_refinement       'Bruker SAINT'
_computing_data_reduction        'Bruker SAINT'
_computing_structure_solution    'SHELXS-97 (Sheldrick, 1990)'
_computing_structure_refinement  'SHELXL-97 (Sheldrick, 1997)'
_computing_molecular_graphics    DIAMOND
_computing_publication_material  WORD

_refine_special_details          
;
Refinement of F^2^ against ALL reflections. The weighted R-factor wR and
goodness of fit S are based on F^2^, conventional R-factors R are based
on F, with F set to zero for negative F^2^. The threshold expression of
F^2^ > 2sigma(F^2^) is used only for calculating R-factors(gt) etc. and is
not relevant to the choice of reflections for refinement. R-factors based
on F^2^ are statistically about twice as large as those based on F, and R-
factors based on ALL data will be even larger.
;

_refine_ls_structure_factor_coef Fsqd
_refine_ls_matrix_type           full
_refine_ls_weighting_scheme      calc
_refine_ls_weighting_details     
'calc w=1/[\s^2^(Fo^2^)+(0.1031P)^2^+0.1153P] where P=(Fo^2^+2Fc^2^)/3'
_atom_sites_solution_primary     direct
_atom_sites_solution_secondary   difmap
_atom_sites_solution_hydrogens   geom
_refine_ls_hydrogen_treatment    mixed
_refine_ls_extinction_method     none
_refine_ls_extinction_coef       ?
_refine_ls_number_reflns         888
_refine_ls_number_parameters     69
_refine_ls_number_restraints     6
_refine_ls_R_factor_all          0.0612
_refine_ls_R_factor_gt           0.0536
_refine_ls_wR_factor_ref         0.1429
_refine_ls_wR_factor_gt          0.1389
_refine_ls_goodness_of_fit_ref   1.104
_refine_ls_restrained_S_all      1.100
_refine_ls_shift/su_max          0.000
_refine_ls_shift/su_mean         0.000

loop_
_atom_site_label
_atom_site_type_symbol
_atom_site_fract_x
_atom_site_fract_y
_atom_site_fract_z
_atom_site_U_iso_or_equiv
_atom_site_adp_type
_atom_site_occupancy
_atom_site_symmetry_multiplicity
_atom_site_calc_flag
_atom_site_refinement_flags
_atom_site_disorder_assembly
_atom_site_disorder_group
Zn1 Zn 1.0000 1.0000 0.10317(6) 0.0179(4) Uani 1 8 d S . .
O1 O 0.8184(3) 0.9695(3) 0.0761(3) 0.0249(12) Uani 0.50 1 d P . .
N1 N 1.0000 1.0000 0.2477(4) 0.0311(17) Uani 1 8 d S . .
C1 C 0.7645(5) 1.0000 0.0000 0.0257(13) Uani 1 4 d S . .
C2 C 0.6264(5) 1.0000 0.0000 0.0284(13) Uani 1 4 d S . .
C3 C 0.5634(5) 0.9081(5) 0.0504(4) 0.0278(12) Uani 0.50 1 d P . .
C4 C 0.6333(6) 0.8081(6) 0.1023(5) 0.0482(19) Uani 0.50 1 d P . .
H4A H 0.5756 0.7520 0.1323 0.072 Uiso 0.50 1 calc PR . .
H4B H 0.6852 0.8448 0.1511 0.072 Uiso 0.50 1 calc PR . .
H4C H 0.6840 0.7634 0.0570 0.072 Uiso 0.50 1 calc PR . .
C5 C 0.903(3) 1.0283(15) 0.295(2) 0.030(7) Uani 0.17 1 d PU A 1
H5 H 0.8293 1.0400 0.2614 0.036 Uiso 0.17 1 calc PR A 1
C5' C 0.922(4) 1.078(4) 0.298(4) 0.034(9) Uani 0.16 2 d SPU A 2
H5' H 0.8853 1.1483 0.2711 0.041 Uiso 0.08 1 calc PR A 2
C6 C 0.9020(17) 1.0427(15) 0.3954(7) 0.063(12) Uani 0.25 1 d P . .
H6 H 0.8221 1.0758 0.3954 0.075 Uiso 0.25 1 calc PR A 1
C7 C 1.0000 1.0000 0.4478(7) 0.040(2) Uani 1 8 d S . .

loop_
_atom_site_aniso_label
_atom_site_aniso_U_11
_atom_site_aniso_U_22
_atom_site_aniso_U_33
_atom_site_aniso_U_23
_atom_site_aniso_U_13
_atom_site_aniso_U_12
Zn1 0.0176(4) 0.0176(4) 0.0187(5) 0.000 0.000 0.000
O1 0.0187(17) 0.022(4) 0.0341(18) 0.0018(14) -0.0042(14) -0.0040(14)
N1 0.042(3) 0.042(3) 0.010(3) 0.000 0.000 0.000
C1 0.020(3) 0.020(3) 0.038(3) 0.000 0.000 0.000
C2 0.018(3) 0.029(3) 0.038(3) 0.000 0.000 0.000
C3 0.021(3) 0.028(3) 0.035(3) 0.005(3) -0.002(2) 0.002(2)
C4 0.026(3) 0.038(4) 0.081(5) 0.022(3) -0.001(3) 0.000(3)
C5 0.038(10) 0.035(16) 0.016(6) -0.007(10) -0.003(5) 0.011(14)
C5' 0.042(13) 0.042(13) 0.019(8) -0.002(7) 0.002(7) 0.01(2)
C6 0.047(9) 0.11(3) 0.028(6) -0.013(6) 0.004(5) 0.029(14)
C7 0.041(4) 0.041(4) 0.038(5) 0.000 0.000 0.000

_geom_special_details            
;
All esds (except the esd in the dihedral angle between two l.s. planes)
are estimated using the full covariance matrix. The cell esds are taken
into account individually in the estimation of esds in distances, angles
and torsion angles; correlations between esds in cell parameters are only
used when they are defined by crystal symmetry. An approximate (isotropic)
treatment of cell esds is used for estimating esds involving l.s. planes.
;

loop_
_geom_bond_atom_site_label_1
_geom_bond_atom_site_label_2
_geom_bond_distance
_geom_bond_site_symmetry_2
_geom_bond_publ_flag
Zn1 N1 2.018(6) . ?
Zn1 O1 2.039(4) 15_775 ?
Zn1 O1 2.039(4) 2_775 ?
Zn1 O1 2.039(4) . ?
Zn1 O1 2.039(4) 14_755 ?
Zn1 O1 2.039(4) 4_575 ?
Zn1 O1 2.039(4) 16 ?
Zn1 O1 2.039(4) 13_575 ?
Zn1 O1 2.039(4) 3_755 ?
Zn1 Zn1 2.8813(17) 9_775 ?
O1 O1 0.664(6) 13_575 ?
O1 C1 1.259(4) . ?
N1 C5 1.28(4) 14_755 ?
N1 C5 1.28(4) 4_575 ?
N1 C5 1.28(4) 15_775 ?
N1 C5 1.28(4) 2_775 ?
N1 C5 1.28(4) 13_575 ?
N1 C5 1.28(4) 3_755 ?
N1 C5 1.28(4) 16 ?
N1 C5 1.28(4) . ?
N1 C5' 1.40(6) 4_575 ?
N1 C5' 1.40(6) 3_755 ?
N1 C5' 1.40(6) . ?
N1 C5' 1.40(6) 2_775 ?
C1 O1 1.259(4) 13_575 ?
C1 O1 1.259(4) 6_575 ?
C1 O1 1.259(4) 10 ?
C1 C2 1.502(7) . ?
C2 C3 1.402(6) 13_575 ?
C2 C3 1.402(6) 6_575 ?
C2 C3 1.402(6) 10 ?
C2 C3 1.402(6) . ?
C3 C3 1.379(11) 14_655 ?
C3 C3 1.408(11) 10 ?
C3 C4 1.512(8) . ?
C3 C3 1.970(11) 5_655 ?
C3 C3 2.000(11) 13_575 ?
C5 C6 1.41(3) . ?
C5' C6 1.42(6) . ?
C6 C6 0.85(3) 15_775 ?
C6 C6 0.93(3) 13_575 ?
C6 C7 1.374(17) . ?
C6 C5 1.60(3) 13_575 ?
C6 C6 1.65(3) 4_575 ?
C6 C6 1.65(3) 3_755 ?
C6 C5 1.70(3) 15_775 ?
C6 C5' 1.90(5) 3_755 ?
C7 C6 1.374(17) 13_575 ?
C7 C6 1.374(17) 14_755 ?
C7 C6 1.374(17) 16 ?
C7 C6 1.374(17) 2_775 ?
C7 C6 1.374(17) 3_755 ?
C7 C6 1.374(17) 4_575 ?
C7 C6 1.374(17) 15_775 ?
C7 C7 1.46(2) 9_776 ?

loop_
_geom_angle_atom_site_label_1
_geom_angle_atom_site_label_2
_geom_angle_atom_site_label_3
_geom_angle
_geom_angle_site_symmetry_1
_geom_angle_site_symmetry_3
_geom_angle_publ_flag
N1 Zn1 O1 100.67(11) . 15_775 ?
N1 Zn1 O1 100.67(11) . 2_775 ?
O1 Zn1 O1 69.51(18) 15_775 2_775 ?
N1 Zn1 O1 100.67(11) . . ?
O1 Zn1 O1 106.34(18) 15_775 . ?
O1 Zn1 O1 158.7(2) 2_775 . ?
N1 Zn1 O1 100.67(11) . 14_755 ?
O1 Zn1 O1 88.03(4) 15_775 14_755 ?
O1 Zn1 O1 18.75(18) 2_775 14_755 ?
O1 Zn1 O1 151.4(2) . 14_755 ?
N1 Zn1 O1 100.67(11) . 4_575 ?
O1 Zn1 O1 18.75(18) 15_775 4_575 ?
O1 Zn1 O1 88.03(4) 2_775 4_575 ?
O1 Zn1 O1 88.03(4) . 4_575 ?
O1 Zn1 O1 106.34(18) 14_755 4_575 ?
N1 Zn1 O1 100.67(11) . 16 ?
O1 Zn1 O1 158.7(2) 15_775 16 ?
O1 Zn1 O1 106.34(18) 2_775 16 ?
O1 Zn1 O1 69.51(18) . 16 ?
O1 Zn1 O1 88.03(4) 14_755 16 ?
O1 Zn1 O1 151.4(2) 4_575 16 ?
N1 Zn1 O1 100.67(11) . 13_575 ?
O1 Zn1 O1 88.03(4) 15_775 13_575 ?
O1 Zn1 O1 151.4(2) 2_775 13_575 ?
O1 Zn1 O1 18.75(18) . 13_575 ?
O1 Zn1 O1 158.7(2) 14_755 13_575 ?
O1 Zn1 O1 69.51(18) 4_575 13_575 ?
O1 Zn1 O1 88.03(4) 16 13_575 ?
N1 Zn1 O1 100.67(11) . 3_755 ?
O1 Zn1 O1 151.4(2) 15_775 3_755 ?
O1 Zn1 O1 88.03(4) 2_775 3_755 ?
O1 Zn1 O1 88.03(4) . 3_755 ?
O1 Zn1 O1 69.51(18) 14_755 3_755 ?
O1 Zn1 O1 158.7(2) 4_575 3_755 ?
O1 Zn1 O1 18.75(18) 16 3_755 ?
O1 Zn1 O1 106.34(18) 13_575 3_755 ?
N1 Zn1 Zn1 180.000(1) . 9_775 ?
O1 Zn1 Zn1 79.33(11) 15_775 9_775 ?
O1 Zn1 Zn1 79.33(11) 2_775 9_775 ?
O1 Zn1 Zn1 79.33(11) . 9_775 ?
O1 Zn1 Zn1 79.33(11) 14_755 9_775 ?
O1 Zn1 Zn1 79.33(11) 4_575 9_775 ?
O1 Zn1 Zn1 79.33(11) 16 9_775 ?
O1 Zn1 Zn1 79.33(11) 13_575 9_775 ?
O1 Zn1 Zn1 79.33(11) 3_755 9_775 ?
O1 O1 C1 74.71(15) 13_575 . ?
O1 O1 Zn1 80.63(9) 13_575 . ?
C1 O1 Zn1 124.4(3) . . ?
C5 N1 C5 48.6(16) 14_755 4_575 ?
C5 N1 C5 74.5(13) 14_755 15_775 ?
C5 N1 C5 27.8(16) 4_575 15_775 ?
C5 N1 C5 27.8(15) 14_755 2_775 ?
C5 N1 C5 74.5(13) 4_575 2_775 ?
C5 N1 C5 97(2) 15_775 2_775 ?
C5 N1 C5 118(3) 14_755 13_575 ?
C5 N1 C5 97(2) 4_575 13_575 ?
C5 N1 C5 74.5(13) 15_775 13_575 ?
C5 N1 C5 111(3) 2_775 13_575 ?
C5 N1 C5 97(2) 14_755 3_755 ?
C5 N1 C5 118(3) 4_575 3_755 ?
C5 N1 C5 111(3) 15_775 3_755 ?
C5 N1 C5 74.5(13) 2_775 3_755 ?
C5 N1 C5 48.6(16) 13_575 3_755 ?
C5 N1 C5 74.5(13) 14_755 16 ?
C5 N1 C5 111(3) 4_575 16 ?
C5 N1 C5 118(3) 15_775 16 ?
C5 N1 C5 48.6(17) 2_775 16 ?
C5 N1 C5 74.5(13) 13_575 16 ?
C5 N1 C5 27.8(16) 3_755 16 ?
C5 N1 C5 111(3) 14_755 . ?
C5 N1 C5 74.5(13) 4_575 . ?
C5 N1 C5 48.6(17) 15_775 . ?
C5 N1 C5 118(3) 2_775 . ?
C5 N1 C5 27.8(16) 13_575 . ?
C5 N1 C5 74.5(13) 3_755 . ?
C5 N1 C5 97(2) 16 . ?
C5 N1 C5' 24.6(8) 14_755 4_575 ?
C5 N1 C5' 24.6(8) 4_575 4_575 ?
C5 N1 C5' 51.9(8) 15_775 4_575 ?
C5 N1 C5' 51.9(8) 2_775 4_575 ?
C5 N1 C5' 112.6(14) 13_575 4_575 ?
C5 N1 C5' 112.6(14) 3_755 4_575 ?
C5 N1 C5' 95.3(12) 16 4_575 ?
C5 N1 C5' 95.3(12) . 4_575 ?
C5 N1 C5' 112.6(14) 14_755 3_755 ?
C5 N1 C5' 112.6(14) 4_575 3_755 ?
C5 N1 C5' 95.3(12) 15_775 3_755 ?
C5 N1 C5' 95.3(12) 2_775 3_755 ?
C5 N1 C5' 24.6(8) 13_575 3_755 ?
C5 N1 C5' 24.6(8) 3_755 3_755 ?
C5 N1 C5' 51.9(8) 16 3_755 ?
C5 N1 C5' 51.9(8) . 3_755 ?
C5' N1 C5' 119(5) 4_575 3_755 ?
C5 N1 C5' 95.3(12) 14_755 . ?
C5 N1 C5' 51.9(8) 4_575 . ?
C5 N1 C5' 24.6(8) 15_775 . ?
C5 N1 C5' 112.6(14) 2_775 . ?
C5 N1 C5' 51.9(8) 13_575 . ?
C5 N1 C5' 95.3(12) 3_755 . ?
C5 N1 C5' 112.6(14) 16 . ?
C5 N1 C5' 24.6(8) . . ?
C5' N1 C5' 75(2) 4_575 . ?
C5' N1 C5' 75(2) 3_755 . ?
C5 N1 C5' 51.9(8) 14_755 2_775 ?
C5 N1 C5' 95.3(12) 4_575 2_775 ?
C5 N1 C5' 112.6(14) 15_775 2_775 ?
C5 N1 C5' 24.6(8) 2_775 2_775 ?
C5 N1 C5' 95.3(12) 13_575 2_775 ?
C5 N1 C5' 51.9(8) 3_755 2_775 ?
C5 N1 C5' 24.6(8) 16 2_775 ?
C5 N1 C5' 112.6(14) . 2_775 ?
C5' N1 C5' 75(2) 4_575 2_775 ?
C5' N1 C5' 75(2) 3_755 2_775 ?
C5' N1 C5' 119(5) . 2_775 ?
O1 C1 O1 115.3(5) 13_575 6_575 ?
O1 C1 O1 30.6(3) 13_575 . ?
O1 C1 O1 124.5(6) 6_575 . ?
O1 C1 O1 124.5(6) 13_575 10 ?
O1 C1 O1 30.6(3) 6_575 10 ?
O1 C1 O1 115.3(5) . 10 ?
O1 C1 C2 117.8(3) 13_575 . ?
O1 C1 C2 117.8(3) 6_575 . ?
O1 C1 C2 117.8(3) . . ?
O1 C1 C2 117.8(3) 10 . ?
C3 C2 C3 60.3(5) 13_575 6_575 ?
C3 C2 C3 121.5(6) 13_575 10 ?
C3 C2 C3 91.0(5) 6_575 10 ?
C3 C2 C3 91.0(5) 13_575 . ?
C3 C2 C3 121.5(6) 6_575 . ?
C3 C2 C3 60.3(5) 10 . ?
C3 C2 C1 119.3(3) 13_575 . ?
C3 C2 C1 119.3(3) 6_575 . ?
C3 C2 C1 119.3(3) 10 . ?
C3 C2 C1 119.3(3) . . ?
C3 C3 C2 119.3(3) 14_655 . ?
C3 C3 C3 90.000(1) 14_655 10 ?
C2 C3 C3 59.9(2) . 10 ?
C3 C3 C4 120.2(3) 14_655 . ?
C2 C3 C4 120.5(5) . . ?
C3 C3 C4 118.7(4) 10 . ?
C3 C3 C3 45.6(3) 14_655 5_655 ?
C2 C3 C3 89.0(4) . 5_655 ?
C3 C3 C3 44.4(3) 10 5_655 ?
C4 C3 C3 134.0(4) . 5_655 ?
C3 C3 C3 90.000(1) 14_655 13_575 ?
C2 C3 C3 44.5(3) . 13_575 ?
C3 C3 C3 90.0 10 13_575 ?
C4 C3 C3 136.0(4) . 13_575 ?
C3 C3 C3 90.000(1) 5_655 13_575 ?
N1 C5 C6 123(3) . . ?
N1 C5' C6 114(4) . . ?
C6 C6 C6 135.00(2) 15_775 13_575 ?
C6 C6 C7 72.0(7) 15_775 . ?
C6 C6 C7 70.2(7) 13_575 . ?
C6 C6 C5 94.2(13) 15_775 . ?
C6 C6 C5 83.6(10) 13_575 . ?
C7 C6 C5 118.9(19) . . ?
C6 C6 C5' 72.6(10) 15_775 . ?
C6 C6 C5' 106(2) 13_575 . ?
C7 C6 C5' 119(2) . . ?
C5 C6 C5' 23.7(10) . . ?
C6 C6 C5 109.6(14) 15_775 13_575 ?
C6 C6 C5 61.1(9) 13_575 13_575 ?
C7 C6 C5 107.2(15) . 13_575 ?
C5 C6 C5 22.5(12) . 13_575 ?
C5' C6 C5 45.4(13) . 13_575 ?
C6 C6 C6 23.5(8) 15_775 4_575 ?
C6 C6 C6 111.5(8) 13_575 4_575 ?
C7 C6 C6 53.2(3) . 4_575 ?
C5 C6 C6 91.9(15) . 4_575 ?
C5' C6 C6 76.1(14) . 4_575 ?
C5 C6 C6 99.7(14) 13_575 4_575 ?
C6 C6 C6 113.5(8) 15_775 3_755 ?
C6 C6 C6 21.5(8) 13_575 3_755 ?
C7 C6 C6 53.2(3) . 3_755 ?
C5 C6 C6 83.9(12) . 3_755 ?
C5' C6 C6 101(2) . 3_755 ?
C5 C6 C6 63.1(10) 13_575 3_755 ?
C6 C6 C6 90.000(6) 4_575 3_755 ?
C6 C6 C5 55.8(11) 15_775 15_775 ?
C6 C6 C5 110.3(13) 13_575 15_775 ?
C7 C6 C5 102.1(13) . 15_775 ?
C5 C6 C5 38(2) . 15_775 ?
C5' C6 C5 19.0(16) . 15_775 ?
C5 C6 C5 56(2) 13_575 15_775 ?
C6 C6 C5 57.1(10) 4_575 15_775 ?
C6 C6 C5 99.2(13) 3_755 15_775 ?
C6 C6 C5' 114.2(18) 15_775 3_755 ?
C6 C6 C5' 46.2(16) 13_575 3_755 ?
C7 C6 C5' 93.3(14) . 3_755 ?
C5 C6 C5' 38.2(17) . 3_755 ?
C5' C6 C5' 60(3) . 3_755 ?
C5 C6 C5' 16.4(16) 13_575 3_755 ?
C6 C6 C5' 98.5(17) 4_575 3_755 ?
C6 C6 C5' 46.7(13) 3_755 3_755 ?
C5 C6 C5' 66.6(11) 15_775 3_755 ?
C6 C7 C6 115.7(12) 13_575 14_755 ?
C6 C7 C6 39.5(14) 13_575 . ?
C6 C7 C6 101.8(13) 14_755 . ?
C6 C7 C6 73.6(6) 13_575 16 ?
C6 C7 C6 73.6(6) 14_755 16 ?
C6 C7 C6 104.0(13) . 16 ?
C6 C7 C6 101.8(13) 13_575 2_775 ?
C6 C7 C6 39.5(14) 14_755 2_775 ?
C6 C7 C6 115.7(12) . 2_775 ?
C6 C7 C6 36.1(14) 16 2_775 ?
C6 C7 C6 36.1(14) 13_575 3_755 ?
C6 C7 C6 104.0(13) 14_755 3_755 ?
C6 C7 C6 73.6(6) . 3_755 ?
C6 C7 C6 39.5(14) 16 3_755 ?
C6 C7 C6 73.6(6) 2_775 3_755 ?
C6 C7 C6 104.0(13) 13_575 4_575 ?
C6 C7 C6 36.1(14) 14_755 4_575 ?
C6 C7 C6 73.6(6) . 4_575 ?
C6 C7 C6 101.8(13) 16 4_575 ?
C6 C7 C6 73.6(6) 2_775 4_575 ?
C6 C7 C6 115.7(12) 3_755 4_575 ?
C6 C7 C6 73.6(6) 13_575 15_775 ?
C6 C7 C6 73.6(6) 14_755 15_775 ?
C6 C7 C6 36.1(14) . 15_775 ?
C6 C7 C6 115.7(12) 16 15_775 ?
C6 C7 C6 104.0(13) 2_775 15_775 ?
C6 C7 C6 101.8(13) 3_755 15_775 ?
C6 C7 C6 39.5(14) 4_575 15_775 ?
C6 C7 C7 122.1(6) 13_575 9_776 ?
C6 C7 C7 122.1(6) 14_755 9_776 ?
C6 C7 C7 122.1(6) . 9_776 ?
C6 C7 C7 122.1(6) 16 9_776 ?
C6 C7 C7 122.1(6) 2_775 9_776 ?
C6 C7 C7 122.1(6) 3_755 9_776 ?
C6 C7 C7 122.1(6) 4_575 9_776 ?
C6 C7 C7 122.1(6) 15_775 9_776 ?

_diffrn_measured_fraction_theta_max 0.999
_diffrn_reflns_theta_full        24.72
_diffrn_measured_fraction_theta_full 0.999
_refine_diff_density_max         1.283
_refine_diff_density_min         -1.005
_refine_diff_density_rms         0.104

# SQUEEZE RESULTS
loop_
_platon_squeeze_void_nr
_platon_squeeze_void_average_x
_platon_squeeze_void_average_y
_platon_squeeze_void_average_z
_platon_squeeze_void_volume
_platon_squeeze_void_count_electrons
1 -0.053 0.450 0.497 792.4 114.1
_platon_squeeze_details          
;
A. L. Spek, PLATON, a multipurpose crystallographic tool,
Utrecht University, Utrecht,
The Netherlands, 2001.
;


